c source SATLIB-style GENERATED (not the literal SATLIB archive)
c generator LogicalOptimizer.Tests SatCorpusGenerator
c kind planted-3sat
c expected SAT
c variables 75
c clauses 320
c ratio 4.26
c seed 12000
c note SAT by construction: planted assignment satisfies every clause
p cnf 75 320
50 1 -61 0
-50 39 -64 0
44 -67 64 0
5 -29 19 0
-2 -17 59 0
57 38 -59 0
-74 -75 -61 0
-27 58 -8 0
-60 -21 -41 0
46 24 41 0
-65 -50 6 0
-45 69 4 0
62 -13 -26 0
-41 -35 -60 0
-18 48 51 0
48 45 17 0
-20 -31 55 0
-7 8 -55 0
3 39 41 0
56 -65 -57 0
-46 17 -54 0
-23 6 -32 0
61 -9 -32 0
-10 31 50 0
32 16 -24 0
57 61 53 0
-20 -38 -43 0
64 -31 57 0
56 -69 -9 0
-13 -40 -52 0
50 -8 2 0
-74 -12 -57 0
-59 61 16 0
23 -75 51 0
23 -6 -70 0
52 -64 -74 0
-2 63 -19 0
27 -9 72 0
-72 56 -22 0
75 -53 37 0
-4 3 -68 0
35 -42 -23 0
-62 29 63 0
-21 19 16 0
-23 72 -32 0
-27 -66 17 0
-27 60 18 0
-44 74 54 0
-22 49 -5 0
-39 66 60 0
36 -25 38 0
-47 -37 -53 0
4 -49 68 0
-44 -3 28 0
22 1 64 0
-22 51 -32 0
45 41 -8 0
34 -51 -72 0
-70 6 22 0
70 -48 -29 0
37 20 9 0
-16 -9 40 0
-3 16 56 0
15 66 14 0
74 -48 43 0
46 18 61 0
1 -27 70 0
-1 -17 -18 0
9 -18 -10 0
-27 -62 61 0
-9 3 -25 0
24 -53 28 0
50 36 -72 0
-2 51 38 0
-6 70 -41 0
42 -50 36 0
-52 -47 -75 0
-57 65 16 0
-31 -30 -54 0
47 -18 58 0
-59 37 -54 0
-43 66 -60 0
17 7 46 0
13 -54 -24 0
63 74 52 0
-63 -6 52 0
4 -2 73 0
47 48 -19 0
9 -28 -44 0
-49 50 59 0
-39 30 -69 0
16 7 29 0
-74 -39 -15 0
74 34 -19 0
-8 43 12 0
-52 2 -41 0
65 -69 58 0
-75 -21 24 0
-36 8 -11 0
-20 -29 49 0
10 -37 62 0
41 -11 -23 0
57 43 -48 0
31 44 2 0
-68 66 43 0
72 48 -23 0
-49 -21 74 0
-22 15 75 0
26 -50 21 0
-18 51 -36 0
43 -35 29 0
24 2 -31 0
-56 15 -18 0
64 -41 -39 0
-6 15 -7 0
11 -25 -21 0
-16 66 -22 0
-24 -11 -60 0
-60 -59 54 0
71 73 54 0
18 -36 19 0
35 62 46 0
-5 11 -39 0
59 -19 22 0
20 27 -38 0
71 59 62 0
72 11 40 0
-44 -23 -48 0
28 -65 -70 0
-56 -67 8 0
-30 71 -22 0
50 -73 -68 0
15 -53 -13 0
-62 53 5 0
-2 33 -26 0
58 -10 -53 0
67 -2 43 0
29 69 -45 0
2 71 40 0
42 19 31 0
-23 12 37 0
-65 -36 20 0
-45 9 -54 0
67 18 -74 0
45 29 24 0
36 53 31 0
68 -11 7 0
16 22 10 0
60 -11 43 0
69 52 -50 0
64 33 -10 0
-17 -54 -44 0
52 40 -48 0
16 48 22 0
20 36 -37 0
-74 21 66 0
2 -49 -40 0
13 62 -56 0
-38 73 36 0
-11 -28 64 0
48 -1 -59 0
-8 -13 -51 0
-24 62 -7 0
57 73 -20 0
-37 56 71 0
43 7 66 0
25 57 47 0
-28 -49 68 0
14 -36 12 0
59 -13 -74 0
-13 42 -68 0
3 15 -25 0
-73 -45 -11 0
47 28 -63 0
-55 -70 -13 0
-58 35 -62 0
-57 23 65 0
-65 12 26 0
11 -60 44 0
51 -73 12 0
-37 21 -49 0
61 14 28 0
-75 72 10 0
-21 -16 -40 0
-1 -49 68 0
36 -32 -60 0
-10 68 51 0
61 -43 22 0
75 -48 -69 0
-54 -48 -67 0
-10 -6 -9 0
16 -59 11 0
-37 24 -56 0
39 -24 -50 0
35 56 -19 0
-31 22 -69 0
-10 -61 -32 0
62 32 44 0
-73 62 53 0
36 73 -72 0
-24 61 -42 0
-69 13 62 0
45 37 59 0
-3 42 -1 0
15 34 8 0
-39 22 73 0
47 40 55 0
-10 -25 -52 0
51 -21 -60 0
61 -22 -49 0
-75 29 -39 0
-74 -54 2 0
22 -72 -27 0
53 37 31 0
-20 -54 -1 0
17 51 -37 0
-46 -36 -50 0
-50 52 13 0
-34 67 -5 0
31 -38 16 0
46 21 70 0
-62 67 45 0
-61 37 33 0
24 -32 -1 0
42 -40 -56 0
-38 -65 27 0
24 16 -10 0
7 71 -46 0
50 -54 -67 0
-2 3 62 0
58 25 -2 0
41 58 29 0
-73 -67 -29 0
-14 36 -7 0
35 50 -53 0
-59 -4 -53 0
52 -67 60 0
-41 -66 -10 0
17 15 -65 0
-14 52 20 0
10 51 19 0
41 2 -71 0
-38 61 -24 0
71 -6 -61 0
-34 2 -29 0
47 -69 -32 0
-48 75 51 0
-20 59 66 0
-72 -19 55 0
2 -54 -52 0
69 -71 34 0
63 -34 8 0
-74 -46 -75 0
64 -58 -61 0
73 -32 -52 0
23 33 70 0
-25 -31 5 0
-64 60 -66 0
-66 11 -5 0
-5 58 15 0
44 56 45 0
-28 -57 26 0
57 71 -75 0
-2 25 -31 0
-64 34 -4 0
-9 58 69 0
62 50 49 0
-46 14 45 0
71 -51 36 0
-56 64 -39 0
-29 -46 63 0
-63 -46 72 0
45 4 11 0
3 26 45 0
67 18 -57 0
-71 -24 -5 0
47 -62 -37 0
-9 63 -70 0
53 36 -58 0
-24 -10 -61 0
-49 10 33 0
40 12 37 0
41 5 58 0
72 -22 48 0
-1 -44 -21 0
-71 -20 -69 0
37 -39 43 0
-26 4 36 0
-18 58 -46 0
-5 27 -28 0
43 72 -31 0
-33 -5 40 0
65 50 -36 0
-19 21 26 0
75 73 43 0
15 59 -12 0
-43 -33 -11 0
67 69 -25 0
69 -27 58 0
17 15 -3 0
-66 53 -27 0
-54 20 24 0
-8 -31 22 0
-67 45 -52 0
20 9 -21 0
68 22 30 0
-3 -32 54 0
68 -39 -73 0
24 -45 -30 0
20 41 -45 0
7 -27 -46 0
-31 1 22 0
68 -50 -55 0
-11 -13 32 0
68 72 -38 0
34 -4 -28 0
60 -56 -50 0
23 -36 43 0
-11 17 47 0
10 37 -54 0
