c source SATLIB-style GENERATED (not the literal SATLIB archive)
c generator LogicalOptimizer.Tests SatCorpusGenerator
c kind planted-3sat
c expected SAT
c variables 80
c clauses 341
c ratio 4.26
c seed 12001
c note SAT by construction: planted assignment satisfies every clause
p cnf 80 341
-3 41 80 0
-62 57 -74 0
34 -75 16 0
-6 58 -37 0
-11 -41 -5 0
4 -42 57 0
63 -79 69 0
-1 -43 48 0
28 34 -59 0
46 78 -76 0
9 -72 -7 0
-10 27 -17 0
43 -3 -69 0
-75 -34 69 0
-65 -46 -27 0
37 -26 -48 0
-7 -50 51 0
-21 -44 8 0
75 -22 -34 0
-61 -42 29 0
33 17 -65 0
-31 24 -9 0
-74 7 -66 0
10 -4 51 0
-28 5 64 0
49 19 4 0
42 65 -17 0
-5 4 40 0
-15 -30 59 0
18 45 -9 0
-65 -57 -23 0
-51 -35 1 0
-55 79 -10 0
48 28 39 0
41 42 -48 0
-57 -74 73 0
-62 -7 -50 0
-18 -52 -48 0
11 -23 -30 0
23 45 39 0
4 -34 -21 0
-10 6 12 0
-19 -61 -42 0
64 -54 -69 0
36 19 -4 0
58 48 21 0
-65 -59 48 0
-9 21 -3 0
-43 -72 33 0
28 -30 38 0
60 -69 -73 0
-77 -10 -26 0
-17 71 22 0
-24 -58 -66 0
46 -50 5 0
-9 42 -4 0
-59 5 -80 0
-41 -40 -65 0
12 -79 28 0
76 12 50 0
-19 -14 -29 0
-43 23 11 0
-40 -50 8 0
62 -56 36 0
-62 -13 -10 0
-10 53 13 0
65 77 -32 0
50 -4 69 0
-27 17 -51 0
-74 -3 -43 0
-50 38 -57 0
-49 -7 9 0
-8 -4 79 0
66 -52 32 0
-2 -44 -18 0
-23 -19 41 0
-74 32 42 0
18 -48 -66 0
53 -9 25 0
-31 -36 -45 0
36 61 -19 0
-65 -43 18 0
63 -15 21 0
-16 55 -3 0
31 5 27 0
-43 19 -61 0
64 -63 -21 0
-38 61 -17 0
79 1 -38 0
-61 73 45 0
-20 44 -28 0
-46 -4 79 0
5 76 14 0
-43 33 49 0
-74 -23 59 0
-6 23 -59 0
-51 52 32 0
61 28 -34 0
63 -56 -68 0
54 -51 -21 0
-61 6 55 0
7 76 15 0
-80 -1 -18 0
52 9 16 0
76 26 -7 0
-38 -59 25 0
-6 63 -10 0
49 -22 -34 0
37 63 -26 0
60 -59 -64 0
32 -62 -46 0
-60 -31 30 0
-51 67 2 0
2 -70 -27 0
34 -5 -38 0
43 67 12 0
-4 13 -25 0
22 -45 80 0
-77 13 -25 0
-53 77 -73 0
19 33 -42 0
-2 -40 33 0
-57 24 44 0
49 21 -23 0
49 60 50 0
34 6 -10 0
6 65 16 0
-3 22 -49 0
-74 -63 -49 0
-3 66 -69 0
1 75 22 0
65 50 -54 0
10 -80 -9 0
-56 -14 -45 0
-28 -61 -24 0
56 42 22 0
-70 62 10 0
-40 65 -53 0
-57 22 76 0
-20 -37 -64 0
-59 -33 -43 0
-72 -9 -79 0
45 -25 -22 0
-10 -8 -77 0
-4 -5 66 0
-4 -18 49 0
-77 75 -5 0
58 -45 4 0
78 10 74 0
-62 -69 -58 0
-73 -3 -45 0
79 56 -37 0
51 -16 63 0
-48 -79 13 0
-33 73 -64 0
4 9 41 0
5 72 -29 0
-59 60 -78 0
51 -3 47 0
-19 -11 -21 0
48 -37 76 0
-15 40 70 0
73 76 79 0
-46 -43 -37 0
22 9 -64 0
-11 39 -22 0
34 11 -32 0
-21 28 7 0
78 37 67 0
-11 -40 19 0
-31 28 -59 0
51 26 60 0
-1 -42 31 0
-54 27 -52 0
78 63 -14 0
-45 -67 30 0
23 19 -26 0
48 -16 -43 0
-35 63 68 0
68 14 -4 0
-51 67 -80 0
-52 68 46 0
28 -3 41 0
36 35 -30 0
-57 -73 -26 0
-1 -23 72 0
-42 63 -57 0
30 -57 -47 0
48 -45 -73 0
3 -9 41 0
76 -52 11 0
-16 42 -65 0
64 22 48 0
9 -3 -4 0
42 -12 43 0
29 5 75 0
-36 78 -68 0
-68 -72 -15 0
36 -8 -15 0
73 17 33 0
54 -4 -11 0
-34 11 29 0
-35 -60 -20 0
-59 -34 2 0
-43 -76 38 0
72 -51 2 0
47 43 24 0
43 67 -6 0
49 -46 -36 0
1 45 28 0
16 -43 30 0
41 47 15 0
9 51 -77 0
34 56 -66 0
-44 66 30 0
32 -59 29 0
-30 36 56 0
-26 13 73 0
-41 -8 25 0
-70 -22 50 0
-22 -38 -10 0
-60 -36 -33 0
-59 -76 -60 0
51 -11 -28 0
1 -55 70 0
36 -52 51 0
-31 -22 -16 0
-51 -16 63 0
77 -26 -3 0
-8 70 -11 0
42 -10 27 0
-38 12 48 0
-16 -62 42 0
-56 -75 -69 0
-78 75 31 0
5 -29 35 0
60 73 72 0
60 -57 69 0
28 -57 -42 0
66 25 74 0
34 -10 22 0
79 -54 4 0
-49 1 19 0
-1 -66 67 0
62 57 -32 0
-59 -31 67 0
-62 58 50 0
31 -57 -36 0
80 2 -35 0
-48 -30 -58 0
48 14 -50 0
-5 -49 31 0
19 -46 42 0
57 78 -39 0
46 10 -19 0
-11 59 -1 0
5 -50 28 0
-50 40 54 0
-6 1 -71 0
-9 -55 -17 0
-44 57 30 0
-31 20 41 0
53 -36 24 0
64 7 -18 0
-39 36 30 0
-23 -8 -31 0
77 -9 -51 0
-19 -56 53 0
-75 -66 -24 0
-27 -35 -10 0
1 29 10 0
22 -57 -26 0
-21 33 -24 0
14 -40 -49 0
15 32 -30 0
66 11 17 0
-33 -70 53 0
2 -55 73 0
-48 -51 31 0
79 -32 -44 0
-63 -26 34 0
2 -68 24 0
-38 -1 -23 0
4 72 61 0
63 -6 -33 0
-2 63 76 0
11 -71 34 0
-16 -53 -3 0
-10 72 -39 0
-51 14 -26 0
-64 -36 -40 0
-53 -62 2 0
-60 -12 34 0
-11 -45 35 0
13 -7 5 0
-66 -5 -23 0
57 -63 15 0
-30 -53 42 0
-54 -46 72 0
-70 -39 -23 0
-31 -14 74 0
5 -16 42 0
-26 -56 -19 0
51 -10 -26 0
-75 30 57 0
35 5 34 0
15 -53 -72 0
-50 33 -61 0
-77 3 -73 0
38 -21 19 0
29 -45 -10 0
67 -23 -17 0
-54 -14 -17 0
-63 -23 1 0
-41 -57 76 0
64 71 41 0
-41 47 -79 0
61 -31 -79 0
-60 57 -50 0
1 -6 48 0
57 79 33 0
-68 -29 1 0
-73 -10 -64 0
2 26 71 0
31 10 -45 0
38 -14 61 0
-42 -75 72 0
59 61 67 0
17 -33 -6 0
-66 -40 26 0
40 -80 -8 0
41 -35 -37 0
-11 58 44 0
28 -52 -11 0
1 30 -46 0
-22 70 -31 0
-17 -26 78 0
38 56 -54 0
80 28 26 0
5 -20 -38 0
19 -36 -26 0
