c source SATLIB-style GENERATED (not the literal SATLIB archive)
c generator LogicalOptimizer.Tests SatCorpusGenerator
c kind planted-3sat
c expected SAT
c variables 95
c clauses 405
c ratio 4.26
c seed 12003
c note SAT by construction: planted assignment satisfies every clause
p cnf 95 405
-7 20 -44 0
78 -23 -93 0
-56 5 -31 0
48 -10 7 0
-2 87 22 0
22 -6 79 0
55 -35 -70 0
11 -8 2 0
-4 31 -58 0
-6 25 22 0
-4 -92 93 0
33 -30 17 0
-10 -86 83 0
-77 -84 -39 0
29 -62 73 0
69 80 89 0
-73 32 75 0
17 73 -83 0
3 2 -39 0
37 -22 -86 0
-79 6 37 0
-72 -73 5 0
-7 71 60 0
41 -47 36 0
-31 -63 -74 0
82 30 -8 0
-40 59 -31 0
91 21 9 0
-89 -56 76 0
-17 46 -32 0
39 -16 -4 0
-23 85 -41 0
-66 69 -9 0
35 -23 53 0
-16 93 -68 0
-38 46 36 0
56 -83 25 0
-94 4 -19 0
-12 -42 9 0
-21 -5 -49 0
-86 -36 -84 0
-43 14 -41 0
25 85 -38 0
-91 -19 75 0
56 88 -35 0
-66 91 27 0
-38 51 28 0
-27 -55 53 0
85 90 -69 0
-29 81 -88 0
-17 -12 44 0
88 -1 -93 0
70 39 45 0
-24 -73 -43 0
-22 7 -50 0
58 29 42 0
78 -1 -55 0
-66 76 -27 0
-1 65 85 0
57 -26 -68 0
8 93 42 0
47 13 30 0
-85 8 55 0
-17 57 -83 0
-69 -53 -12 0
-10 -64 54 0
-30 -88 -79 0
50 -42 -81 0
21 -24 16 0
-90 55 -73 0
44 -40 37 0
-46 -64 60 0
-58 34 80 0
-67 -84 -9 0
48 -34 -62 0
-52 10 68 0
-3 62 50 0
-45 -67 -79 0
41 22 -46 0
-46 72 -51 0
26 67 -89 0
21 27 -39 0
-18 13 93 0
-65 -62 7 0
-7 -95 -47 0
-57 3 21 0
14 26 25 0
-15 -4 86 0
52 56 -53 0
59 15 45 0
-34 -67 69 0
-62 -53 72 0
-15 -75 49 0
7 37 31 0
-69 41 -22 0
14 -77 5 0
-25 58 -40 0
-79 -60 -48 0
-10 62 -85 0
-3 -67 56 0
12 -75 27 0
43 2 -19 0
78 46 -88 0
67 -86 75 0
23 -41 -27 0
65 -3 -39 0
72 -81 -41 0
3 -38 -89 0
-67 -50 8 0
69 -2 -63 0
16 -87 -29 0
-39 2 -24 0
-27 -50 -17 0
15 49 -42 0
-77 -34 19 0
45 -30 -74 0
-79 -95 65 0
11 41 -57 0
27 41 -42 0
-48 -89 46 0
-26 56 -53 0
-30 44 -42 0
45 60 81 0
-21 20 -14 0
3 88 60 0
29 -7 40 0
51 -16 -8 0
-49 -31 -4 0
84 -17 64 0
-7 -45 20 0
84 80 24 0
-1 95 80 0
13 35 -53 0
-44 1 -11 0
15 50 -3 0
58 23 63 0
46 -63 -67 0
-4 36 54 0
49 18 14 0
74 23 -20 0
58 -80 -5 0
-89 35 -21 0
-32 -10 57 0
-24 -11 -2 0
28 -73 23 0
-17 15 -86 0
95 17 -67 0
29 36 71 0
18 66 -51 0
39 -70 82 0
34 -49 57 0
-95 -60 77 0
45 -91 60 0
82 60 -89 0
5 85 -20 0
-26 58 -90 0
-46 42 49 0
4 64 30 0
26 46 5 0
50 -47 56 0
23 -9 91 0
-63 27 36 0
-11 -41 93 0
56 -13 22 0
-21 -12 -50 0
-16 11 61 0
78 -77 -29 0
39 5 60 0
-55 -90 20 0
78 -51 79 0
-90 70 -64 0
-90 -16 -75 0
-27 69 44 0
57 -73 49 0
31 -94 6 0
78 6 -45 0
-69 -81 -40 0
-20 -60 49 0
-37 -72 -40 0
-72 -85 -71 0
-68 -13 41 0
24 39 -54 0
34 -64 87 0
77 4 -39 0
-39 9 81 0
-94 69 5 0
36 -28 11 0
-57 -92 38 0
58 54 -31 0
-46 -40 83 0
59 29 -11 0
-66 -78 51 0
21 -72 33 0
-19 71 44 0
54 -51 -28 0
51 75 65 0
-23 -49 -74 0
7 72 5 0
-31 -68 -54 0
8 -92 37 0
39 73 78 0
51 30 -91 0
-41 73 -63 0
-80 -35 -10 0
86 2 -68 0
-74 60 -65 0
-4 46 54 0
29 24 73 0
-31 -66 -39 0
50 4 77 0
79 -91 50 0
-71 18 -60 0
27 67 -94 0
18 65 -1 0
33 14 11 0
91 -9 81 0
-54 -57 -46 0
-45 86 34 0
-57 5 86 0
-86 75 88 0
13 60 61 0
82 78 -46 0
-20 17 -69 0
29 65 90 0
37 60 41 0
-2 52 -40 0
-19 47 -17 0
-18 82 -31 0
-36 -48 46 0
19 21 -51 0
42 52 -31 0
46 -63 -62 0
34 46 -30 0
-84 -32 -69 0
-26 -76 4 0
-93 -45 58 0
-83 -65 28 0
70 40 -51 0
84 94 27 0
-68 -62 63 0
71 93 78 0
1 79 -80 0
-43 16 50 0
8 -13 -37 0
7 -47 31 0
62 -16 -74 0
22 42 -30 0
-6 83 60 0
-3 -47 -41 0
57 -34 91 0
61 3 -80 0
39 -18 -66 0
4 -95 78 0
-34 -42 -33 0
22 52 94 0
-27 21 -65 0
-22 -49 -41 0
3 -55 -74 0
-5 -48 57 0
79 93 -24 0
78 21 -76 0
25 -15 -48 0
-42 76 -52 0
70 -92 -20 0
55 -34 47 0
86 36 73 0
79 39 26 0
-75 62 33 0
-28 33 -4 0
58 -7 -88 0
-9 -94 91 0
-32 -35 51 0
48 50 -88 0
-66 88 10 0
31 93 7 0
50 78 11 0
-79 66 -45 0
-51 23 -10 0
-68 65 -72 0
-31 -76 -65 0
80 -1 43 0
-2 -17 59 0
-82 -78 8 0
-6 86 -77 0
87 -83 78 0
6 55 82 0
-24 -25 70 0
18 13 -65 0
29 -14 63 0
-3 35 4 0
19 15 -12 0
-95 53 -7 0
-46 16 87 0
9 -83 44 0
-47 61 -69 0
26 -69 -18 0
91 77 -61 0
-48 -57 -71 0
-16 28 86 0
-5 -91 -42 0
75 21 -31 0
57 -24 -46 0
-61 -87 78 0
59 -58 -68 0
-72 49 -28 0
-39 19 -87 0
52 8 -16 0
20 10 -49 0
38 43 20 0
14 -71 -58 0
-37 -60 6 0
81 -51 -94 0
-53 -31 3 0
-50 -38 -73 0
-9 -5 60 0
-17 -40 -24 0
45 41 -87 0
40 -38 -51 0
-12 85 -9 0
60 -6 -30 0
-13 -21 84 0
68 -84 63 0
5 12 -74 0
70 -44 63 0
-26 69 -5 0
36 -33 -6 0
27 -62 -68 0
1 -39 9 0
20 -81 8 0
-60 -61 94 0
9 -12 23 0
-63 48 -80 0
33 -76 23 0
30 20 -68 0
29 82 -35 0
-62 83 -26 0
24 37 33 0
47 -73 -31 0
-47 -77 78 0
-71 -6 -23 0
66 45 -92 0
7 -16 -80 0
92 -2 -31 0
-70 44 8 0
-92 23 -90 0
-37 -52 62 0
6 -32 42 0
-12 -20 2 0
-51 -46 1 0
-89 -85 90 0
48 81 -20 0
-38 -4 -50 0
-69 3 41 0
-60 -88 -35 0
-40 39 86 0
83 -76 89 0
95 -74 38 0
92 -10 -33 0
48 3 46 0
-86 -62 -32 0
59 38 73 0
-24 -46 -16 0
-50 29 84 0
92 85 -32 0
-62 -74 -69 0
28 90 -46 0
-55 7 58 0
33 -16 -75 0
-3 -72 88 0
-27 86 -50 0
1 -64 -55 0
35 3 7 0
53 22 59 0
-82 27 77 0
71 7 44 0
-78 -65 -61 0
11 57 3 0
-41 55 95 0
71 -42 86 0
-11 -41 -20 0
-78 -72 -90 0
49 2 -70 0
-26 -76 92 0
71 -41 -5 0
-87 55 90 0
86 -74 33 0
89 88 86 0
31 -67 -91 0
-23 40 -68 0
-62 16 -17 0
-94 -50 61 0
-14 -84 -73 0
-28 -63 -81 0
69 5 28 0
66 -8 -24 0
31 -77 -9 0
-53 -24 55 0
63 -87 21 0
-77 27 -35 0
-67 42 25 0
88 -13 -91 0
14 -74 17 0
5 28 -88 0
28 -11 5 0
56 42 15 0
