c source SATLIB-style GENERATED (not the literal SATLIB archive)
c generator LogicalOptimizer.Tests SatCorpusGenerator
c kind planted-3sat
c expected SAT
c variables 90
c clauses 383
c ratio 4.26
c seed 12002
c note SAT by construction: planted assignment satisfies every clause
p cnf 90 383
-79 67 36 0
14 19 46 0
-36 -48 79 0
42 89 -13 0
-54 -81 -64 0
88 4 -90 0
80 67 33 0
38 -87 46 0
25 -63 -48 0
-77 68 -62 0
-39 26 54 0
-13 -27 -24 0
-86 -40 69 0
-9 -36 -84 0
37 54 -49 0
-21 -10 -50 0
50 77 -74 0
-70 29 7 0
-72 -78 -6 0
-60 68 -63 0
-59 -63 -4 0
-20 17 -76 0
25 -70 31 0
75 -59 15 0
-42 57 -38 0
22 78 63 0
-3 53 50 0
87 -38 20 0
-37 -76 38 0
17 -4 59 0
-6 90 54 0
9 -89 57 0
-83 -22 63 0
-30 65 1 0
-77 -46 29 0
40 9 -17 0
6 -28 -75 0
65 -52 37 0
-61 4 73 0
-90 70 -53 0
61 -58 12 0
67 1 -31 0
61 78 85 0
-70 34 -51 0
-61 74 -88 0
24 -8 13 0
-76 -47 -66 0
-49 78 74 0
86 -61 14 0
-64 29 38 0
-83 -69 -68 0
-7 -72 19 0
-58 -56 -86 0
79 -64 37 0
80 -32 19 0
-89 64 33 0
-61 69 -87 0
-68 8 42 0
-68 50 51 0
-46 43 -76 0
-21 -88 71 0
74 41 -63 0
33 -47 -71 0
18 -72 32 0
-51 -4 -29 0
-41 -26 20 0
-44 75 31 0
-43 -69 -71 0
2 11 -15 0
64 -84 27 0
-68 25 18 0
27 13 52 0
-78 76 27 0
21 -54 69 0
-13 77 54 0
7 -79 76 0
-85 -28 64 0
62 -87 -85 0
-50 -68 -57 0
80 36 -13 0
18 49 15 0
56 46 51 0
-64 -1 36 0
62 24 23 0
40 -13 -84 0
-72 89 -43 0
47 -80 -54 0
-29 10 -46 0
-55 -15 -52 0
-42 -12 6 0
-9 37 55 0
81 -56 -51 0
-24 26 38 0
-10 4 56 0
32 -46 -33 0
-22 35 -30 0
42 23 -86 0
-56 76 34 0
63 71 -68 0
-78 38 -49 0
-31 72 -36 0
-65 -18 -13 0
-89 -68 -53 0
75 29 80 0
26 24 -71 0
-32 77 54 0
-33 40 -88 0
10 73 12 0
68 25 85 0
66 -35 -21 0
76 85 89 0
-74 -31 -20 0
78 -43 -58 0
15 86 -53 0
38 -53 34 0
61 16 69 0
-73 70 65 0
89 -33 -37 0
40 -44 51 0
51 -45 30 0
-75 -3 -9 0
42 -30 44 0
42 65 37 0
16 -57 60 0
13 -4 64 0
77 18 65 0
56 57 -55 0
32 -54 55 0
3 4 83 0
-30 88 54 0
-47 -1 -26 0
-52 61 35 0
-10 -32 48 0
-28 -71 40 0
-45 26 -46 0
-46 25 -88 0
-82 87 86 0
48 -70 -5 0
41 -6 -86 0
51 -31 83 0
-6 59 44 0
-26 64 -58 0
30 7 37 0
-58 -48 43 0
-50 -22 -36 0
-15 -51 47 0
-64 -88 -26 0
-39 13 80 0
-84 -76 -11 0
-16 -61 -48 0
68 -50 -72 0
19 47 33 0
-66 -12 -76 0
-54 51 76 0
-34 73 -88 0
12 41 -29 0
-44 28 -71 0
-43 -74 6 0
-12 65 -89 0
-68 65 -26 0
-29 75 -22 0
70 -22 -30 0
-71 21 55 0
25 17 82 0
-84 36 -22 0
-50 90 -73 0
-59 -24 1 0
63 -17 15 0
12 -88 53 0
10 32 -21 0
59 11 -68 0
-35 56 -60 0
2 37 -40 0
79 -13 -42 0
27 -36 66 0
75 63 14 0
-19 -9 5 0
60 -62 -18 0
3 18 51 0
-80 -71 -58 0
25 -89 22 0
70 -12 45 0
39 -85 83 0
1 10 41 0
68 4 -36 0
-47 27 -41 0
10 76 -56 0
-35 71 -55 0
-45 -66 -52 0
35 -2 -74 0
67 31 -7 0
-89 37 77 0
-56 26 -85 0
-71 39 -60 0
-57 -14 6 0
-80 68 -76 0
8 -89 -78 0
29 17 3 0
60 -74 86 0
28 29 -80 0
86 -2 3 0
32 -68 -88 0
-80 -59 60 0
63 81 -41 0
-40 16 9 0
-58 -55 31 0
63 15 8 0
8 -2 -3 0
58 50 -24 0
81 56 50 0
86 70 -35 0
5 67 34 0
54 43 -10 0
39 -35 -22 0
36 5 -41 0
-13 67 -73 0
63 -77 64 0
24 -43 73 0
-36 -76 -21 0
2 -71 11 0
47 -64 -66 0
68 -1 49 0
-35 58 12 0
-15 9 4 0
-46 -67 82 0
-22 8 40 0
50 49 8 0
77 -44 62 0
-81 84 30 0
68 -50 25 0
84 29 -8 0
78 -55 68 0
14 -81 -57 0
-7 -12 -58 0
83 43 -25 0
26 9 -63 0
-33 21 59 0
25 -26 -41 0
-77 -46 -33 0
47 -50 -19 0
-83 -6 -50 0
30 31 49 0
22 -23 57 0
-57 88 70 0
26 52 20 0
83 -30 21 0
89 -60 -28 0
85 -43 62 0
-87 -46 57 0
74 -64 41 0
16 -27 -26 0
68 49 -26 0
-27 -41 72 0
-8 27 -83 0
-27 -57 -20 0
30 -31 -21 0
-1 -3 59 0
84 16 67 0
2 -84 11 0
53 -2 59 0
-58 45 1 0
11 14 -69 0
14 -28 32 0
-73 66 80 0
-60 4 -69 0
89 -35 1 0
16 18 -32 0
16 74 -83 0
18 -56 -75 0
-84 7 83 0
42 14 -84 0
3 59 -82 0
-38 -33 -2 0
-1 44 89 0
-84 18 35 0
-29 -30 4 0
45 -70 -15 0
82 24 -87 0
36 42 -59 0
43 -31 -65 0
84 49 3 0
-27 11 -45 0
21 -82 -86 0
-59 30 83 0
-17 39 -35 0
55 34 63 0
61 89 40 0
50 2 -1 0
-87 -22 -72 0
38 77 -20 0
-69 -70 77 0
1 3 -65 0
-22 52 42 0
17 87 -70 0
34 9 54 0
43 -86 48 0
51 34 77 0
-17 2 -71 0
-83 -2 77 0
39 16 -24 0
-31 -51 -67 0
-90 15 -7 0
50 -66 -19 0
66 48 46 0
9 -53 32 0
-11 -72 -76 0
-26 17 -9 0
90 63 83 0
3 -35 61 0
-17 25 -26 0
-73 -26 62 0
64 -3 52 0
-23 42 -65 0
-17 8 1 0
-42 86 72 0
-41 -90 84 0
16 -74 -63 0
70 16 8 0
-87 47 -50 0
39 60 -33 0
46 20 10 0
19 -18 51 0
-44 76 36 0
35 49 42 0
82 7 -42 0
-74 -11 -61 0
56 61 68 0
-85 17 40 0
-39 8 62 0
75 -56 -23 0
10 -70 -28 0
-10 -1 -12 0
-30 -29 -69 0
-58 75 -5 0
-40 -6 31 0
34 23 -79 0
-49 -43 45 0
33 73 45 0
-35 -25 7 0
-64 47 -37 0
-33 46 39 0
-69 79 26 0
-21 82 -28 0
22 36 71 0
-10 -75 -42 0
-39 87 41 0
88 38 50 0
77 41 24 0
7 -26 -76 0
-15 27 -13 0
-84 11 -69 0
-33 -48 27 0
9 -10 33 0
10 47 52 0
56 -74 -2 0
53 12 24 0
-84 19 35 0
37 -44 74 0
-73 -48 9 0
-75 40 -48 0
-32 28 -53 0
75 -68 -7 0
-66 52 20 0
34 27 -48 0
-78 -20 87 0
70 -52 -55 0
-24 84 38 0
24 1 31 0
-70 -15 -6 0
-36 -9 33 0
20 63 -76 0
15 73 -64 0
11 -78 -44 0
-78 -32 -63 0
6 71 -15 0
-23 -50 -51 0
77 34 85 0
-30 11 -1 0
56 -46 -71 0
81 1 32 0
-32 21 -54 0
83 1 -57 0
-84 -90 -23 0
