c source SATLIB-style GENERATED (not the literal SATLIB archive)
c generator LogicalOptimizer.Tests SatCorpusGenerator
c kind planted-3sat
c expected SAT
c variables 100
c clauses 426
c ratio 4.26
c seed 12004
c note SAT by construction: planted assignment satisfies every clause
p cnf 100 426
23 -50 8 0
-52 86 64 0
11 41 61 0
87 -10 85 0
-75 55 24 0
-83 -99 31 0
97 19 -89 0
74 -52 79 0
91 -36 -70 0
-39 -83 79 0
-60 68 -25 0
61 47 16 0
-55 74 -93 0
30 -96 -11 0
60 15 -68 0
19 -53 90 0
-49 -67 -43 0
75 9 -57 0
47 16 67 0
-93 59 87 0
-28 50 -36 0
-25 26 98 0
9 79 -98 0
-13 -51 -84 0
-97 92 16 0
39 94 42 0
-31 -21 -100 0
78 -99 17 0
48 -33 13 0
-51 84 40 0
39 89 81 0
-88 56 -48 0
-67 -79 86 0
-57 81 -90 0
-66 -83 -73 0
82 51 46 0
74 -9 31 0
-27 -40 -9 0
-42 -78 -45 0
97 6 -74 0
-83 23 43 0
-75 41 -24 0
23 57 -59 0
-9 70 -50 0
-88 18 -16 0
-21 76 10 0
99 91 56 0
36 37 44 0
86 -84 -75 0
-56 -4 -34 0
6 19 -34 0
40 65 70 0
32 -81 -35 0
-78 23 53 0
-64 -37 -29 0
-55 32 -56 0
-2 -90 -97 0
-17 60 -58 0
-21 -76 -83 0
-72 -25 77 0
46 -48 -8 0
-59 37 -81 0
-78 -15 -43 0
-89 -66 -96 0
-73 86 -51 0
-8 15 -7 0
2 92 -72 0
-71 -51 21 0
-3 61 95 0
93 -78 27 0
80 14 -5 0
-91 -99 -11 0
-18 28 91 0
52 94 84 0
-13 16 -90 0
50 -59 -9 0
91 28 -40 0
-12 -97 5 0
-33 -78 -96 0
35 -93 -89 0
19 74 -56 0
-83 -68 -100 0
86 93 16 0
8 -35 -1 0
-55 68 -19 0
2 -97 -44 0
69 -70 93 0
24 64 -5 0
-37 13 -83 0
-65 -69 81 0
64 -100 -43 0
48 -85 9 0
-27 86 36 0
74 51 62 0
17 32 75 0
-90 -82 -56 0
-24 96 -29 0
17 59 43 0
87 44 -52 0
-44 54 30 0
66 -48 -95 0
-72 27 36 0
46 94 -40 0
-74 89 -38 0
-63 86 45 0
50 -39 -59 0
-95 -12 96 0
91 -88 42 0
-37 13 25 0
65 10 -98 0
-15 93 -11 0
-76 20 3 0
59 -90 -18 0
30 46 26 0
22 -74 -28 0
77 -71 -69 0
1 39 78 0
71 -76 7 0
-45 -36 95 0
-49 8 -70 0
-58 22 90 0
21 39 -27 0
86 60 -73 0
6 82 -24 0
71 65 56 0
41 -78 84 0
-57 77 -2 0
-13 -43 -95 0
79 -55 21 0
85 -49 -91 0
34 35 62 0
-40 -92 -20 0
13 -58 -29 0
-2 54 15 0
95 50 -35 0
-100 37 -84 0
31 -69 -65 0
-97 42 27 0
-21 -57 -4 0
20 58 3 0
2 81 68 0
78 -3 -8 0
-55 80 1 0
-9 13 -62 0
29 60 88 0
-13 10 -27 0
60 87 -88 0
-96 -48 -77 0
20 -21 30 0
-40 -6 -61 0
-26 47 -75 0
42 98 63 0
41 -95 -69 0
-97 43 96 0
89 13 81 0
-66 -9 -14 0
27 -28 100 0
-81 98 -15 0
-33 27 -89 0
-17 -35 -67 0
-80 52 39 0
-7 72 -29 0
99 28 -95 0
-6 -11 3 0
-69 -74 35 0
-67 -96 -35 0
-43 -40 9 0
4 75 -44 0
5 -56 -66 0
-94 68 -27 0
-35 10 -16 0
-17 40 -31 0
16 -97 -83 0
-38 -84 50 0
-70 -81 25 0
-50 -76 -63 0
90 95 -36 0
-16 85 -80 0
-12 59 -21 0
-52 59 -85 0
35 -73 -22 0
-1 95 20 0
-72 59 -43 0
42 -64 84 0
80 52 76 0
-15 -53 29 0
-63 -69 87 0
-39 86 89 0
-9 86 63 0
-62 98 17 0
80 -55 65 0
6 -3 100 0
-58 -3 67 0
1 14 49 0
30 -12 100 0
71 37 -51 0
-25 28 9 0
-10 76 -78 0
99 46 52 0
18 -21 -73 0
2 44 -73 0
-55 96 16 0
11 81 25 0
-29 -74 10 0
-7 28 -73 0
100 41 2 0
93 -20 30 0
3 -20 -43 0
40 -76 -41 0
91 -21 12 0
-85 23 44 0
44 91 -34 0
-43 -30 -38 0
-85 66 99 0
-100 87 39 0
82 -90 48 0
-59 -28 11 0
19 -99 -43 0
46 12 22 0
10 -6 11 0
12 -45 44 0
52 20 -35 0
-76 -93 3 0
-81 -59 -15 0
57 44 -31 0
36 -88 -81 0
-39 100 90 0
-90 50 49 0
45 96 40 0
92 9 25 0
-6 45 -47 0
-12 -85 -43 0
69 62 47 0
8 91 -18 0
100 3 79 0
-75 35 -100 0
-63 7 14 0
-70 -84 20 0
-90 -47 63 0
-4 -3 99 0
-10 -68 58 0
-83 -100 15 0
-31 48 -49 0
76 -42 -38 0
-85 -95 -38 0
-12 -23 -80 0
-75 -98 77 0
27 64 -24 0
69 -37 -76 0
-12 78 -11 0
-34 70 -78 0
-97 -74 -18 0
68 73 -100 0
-45 -89 28 0
-36 -82 -84 0
-65 7 -73 0
-50 -92 8 0
-9 73 -77 0
83 61 -50 0
83 93 -29 0
-23 -11 25 0
-87 42 -36 0
-46 36 -40 0
-7 60 95 0
59 -57 15 0
-56 -74 -31 0
-14 -51 89 0
97 -2 80 0
78 29 -9 0
-81 -100 -70 0
59 70 -80 0
82 56 -64 0
52 -79 -98 0
-88 -21 48 0
-22 2 48 0
-81 17 -89 0
-18 87 -75 0
88 -69 -11 0
-94 -63 -44 0
18 -89 91 0
16 1 24 0
91 75 -35 0
-3 -24 75 0
-35 -92 -26 0
71 -89 -33 0
-76 84 93 0
45 39 41 0
-18 -62 -63 0
-99 -39 7 0
-79 -20 12 0
-70 -75 15 0
79 33 75 0
-70 -27 51 0
98 100 72 0
-95 84 -90 0
-61 -2 40 0
6 -46 -95 0
-63 -12 74 0
86 -48 -81 0
94 -30 62 0
-46 -93 44 0
-36 40 22 0
-87 -46 17 0
37 38 -87 0
-62 42 8 0
12 -6 17 0
44 87 -67 0
87 78 -99 0
-43 79 -25 0
44 1 -4 0
42 -30 79 0
47 68 55 0
-71 -18 85 0
64 -31 -96 0
-87 54 14 0
-38 -42 -89 0
-37 81 73 0
-35 -39 -3 0
60 44 -1 0
-25 63 14 0
65 34 -94 0
-83 40 12 0
-91 66 51 0
85 -72 29 0
76 -96 28 0
-73 74 37 0
29 -3 37 0
-63 -61 23 0
-33 -30 -88 0
59 -76 -57 0
86 -2 26 0
-66 -39 -31 0
-83 -45 -15 0
-73 -25 -81 0
-79 43 -54 0
-23 -61 36 0
-85 -95 65 0
100 1 -14 0
76 5 -61 0
-23 52 -24 0
59 -95 -50 0
-21 -7 -94 0
-88 77 65 0
-73 89 -67 0
-41 -96 -21 0
11 52 -15 0
-79 -31 65 0
83 -27 -1 0
-58 74 -96 0
92 3 -31 0
100 -38 49 0
68 -48 -55 0
47 14 -37 0
100 2 -43 0
66 36 12 0
-20 -56 88 0
-95 -50 60 0
-23 44 75 0
59 69 93 0
-43 -56 26 0
98 -49 1 0
11 67 -54 0
-33 9 -31 0
-69 -8 85 0
81 33 -46 0
-44 83 28 0
-89 -49 -31 0
36 40 33 0
5 -35 57 0
14 88 21 0
65 -29 -50 0
6 15 8 0
93 81 47 0
96 74 -18 0
33 -16 85 0
84 83 34 0
24 3 54 0
72 2 -37 0
-2 64 -81 0
-96 -80 2 0
-35 -72 -50 0
58 -14 88 0
-73 -18 -30 0
-82 -67 26 0
-73 93 25 0
-1 -84 62 0
23 -52 -50 0
-41 94 69 0
12 -6 -89 0
-100 47 -78 0
78 44 -22 0
97 40 18 0
62 66 32 0
48 -92 -3 0
36 -23 -10 0
-56 -12 96 0
91 90 -96 0
94 59 -69 0
-68 38 74 0
11 -27 10 0
-63 64 45 0
76 96 13 0
22 86 9 0
-17 8 -19 0
85 -11 -22 0
-82 46 45 0
50 67 -61 0
55 -18 -59 0
-66 72 91 0
24 97 -25 0
91 63 -37 0
-84 -38 -44 0
67 10 69 0
41 43 -31 0
2 -99 19 0
-7 5 -60 0
-59 -34 81 0
45 89 82 0
75 100 87 0
58 17 -50 0
-82 -78 98 0
-5 -94 92 0
-52 -86 -88 0
-82 -1 28 0
-2 -96 95 0
-15 -41 38 0
