c source SATLIB-style GENERATED (not the literal SATLIB archive)
c generator LogicalOptimizer.Tests SatCorpusGenerator
c kind planted-3sat
c expected SAT
c variables 105
c clauses 447
c ratio 4.26
c seed 12005
c note SAT by construction: planted assignment satisfies every clause
p cnf 105 447
68 54 -13 0
34 67 -32 0
-12 -52 -19 0
42 -51 91 0
7 66 -43 0
-8 -101 29 0
20 37 -105 0
84 80 78 0
-70 -53 16 0
2 26 55 0
-58 8 39 0
-38 -44 91 0
55 -16 19 0
-36 -78 -45 0
-54 -44 46 0
-80 -16 22 0
19 -16 -76 0
-65 81 96 0
20 -72 66 0
-102 64 -52 0
1 48 77 0
-4 97 46 0
-55 5 -81 0
90 -63 -28 0
-82 -51 47 0
78 61 -1 0
6 -16 66 0
100 -26 -57 0
-68 -35 -30 0
-39 -101 -78 0
105 26 -30 0
50 -46 79 0
21 41 75 0
-49 66 76 0
86 -7 88 0
-83 34 -49 0
-100 -65 3 0
96 42 79 0
88 35 90 0
-99 -23 11 0
78 1 -74 0
25 -97 9 0
-99 -42 -93 0
61 51 -66 0
6 -42 -3 0
-11 -93 25 0
98 51 -43 0
-25 39 -86 0
-35 -37 43 0
-41 32 99 0
22 70 -57 0
-28 81 41 0
34 6 -92 0
-30 28 -51 0
31 32 -103 0
103 -29 10 0
-15 -104 -26 0
-100 55 34 0
54 -14 87 0
76 78 36 0
-102 -46 87 0
29 30 69 0
-81 -41 74 0
81 -6 -83 0
-36 -4 -3 0
103 24 -96 0
-54 -33 104 0
-74 83 -18 0
71 -28 35 0
-25 10 -12 0
83 -45 25 0
-38 91 105 0
89 -99 11 0
39 34 -28 0
81 73 -78 0
-5 15 -6 0
50 -33 -65 0
71 -54 92 0
15 -7 -18 0
-105 -61 -8 0
77 -26 88 0
2 19 -91 0
-17 -70 -38 0
-65 -1 53 0
-79 36 47 0
64 81 50 0
-85 59 -15 0
-53 -56 -77 0
5 -26 104 0
-28 -91 -4 0
-54 39 -86 0
73 26 30 0
50 53 -14 0
3 73 53 0
86 53 97 0
-22 89 61 0
-96 -77 -53 0
-38 -79 23 0
12 -1 42 0
8 -51 -97 0
92 47 11 0
59 95 -53 0
-39 -10 -77 0
-17 101 93 0
85 -5 -96 0
-10 49 -81 0
64 29 -69 0
-90 -104 -69 0
60 29 -85 0
-69 32 33 0
-29 30 -42 0
102 43 4 0
6 -14 71 0
52 -16 27 0
-76 93 -18 0
-22 -69 1 0
-35 -92 101 0
-87 37 9 0
53 61 -17 0
23 60 -18 0
21 -9 29 0
-47 -40 70 0
78 48 90 0
33 -77 105 0
-5 -22 93 0
17 65 85 0
-36 -58 -2 0
-71 -77 -102 0
-103 21 -3 0
-78 28 -10 0
-67 89 23 0
-75 100 -58 0
-32 3 21 0
-9 -51 23 0
15 -71 41 0
-48 -39 -23 0
105 -53 61 0
-31 18 -45 0
-101 -13 68 0
-80 -30 102 0
45 -20 -54 0
100 -26 -36 0
50 -51 28 0
-105 79 85 0
22 34 -71 0
-60 62 58 0
5 -90 -48 0
-72 41 40 0
92 88 56 0
-44 -22 -3 0
-90 -74 -2 0
63 -22 71 0
21 -102 14 0
-6 69 -65 0
-96 19 33 0
-28 87 -78 0
-48 -52 92 0
-17 37 -49 0
-14 -5 21 0
-9 -64 40 0
-60 -32 -69 0
-46 -75 -49 0
89 35 -49 0
105 -73 37 0
27 87 55 0
54 12 -41 0
-79 -56 -95 0
-71 -21 -7 0
-30 33 82 0
-73 -89 -50 0
43 -57 -103 0
37 101 66 0
84 55 70 0
-81 -63 58 0
-36 -83 -2 0
29 69 -87 0
62 -28 -22 0
98 -19 56 0
47 -45 -12 0
78 -82 -8 0
-15 3 8 0
-74 87 15 0
93 -62 -92 0
34 -40 -57 0
54 -39 57 0
-1 -92 -8 0
73 -12 39 0
61 86 -31 0
79 29 -23 0
-92 23 -99 0
-51 2 -100 0
37 -72 -2 0
-74 65 -10 0
23 27 -25 0
-83 64 -100 0
80 22 32 0
38 -78 -41 0
-91 -44 -61 0
53 -3 -99 0
35 15 -101 0
2 -43 69 0
35 -68 70 0
93 -52 64 0
21 4 -46 0
-58 54 51 0
34 72 -60 0
52 -88 -10 0
-56 42 -92 0
-69 -33 73 0
-68 -71 -4 0
-20 19 90 0
-105 86 27 0
-64 -51 32 0
-1 -52 -18 0
-78 -44 35 0
45 -1 70 0
-27 23 11 0
98 70 35 0
-38 -31 73 0
-57 -3 103 0
-18 3 17 0
-99 14 -80 0
96 -88 71 0
44 6 -18 0
-78 -10 -33 0
-13 46 53 0
30 -45 58 0
83 -90 78 0
37 -13 90 0
-76 63 -37 0
32 33 26 0
-12 36 -22 0
-35 -68 -13 0
105 10 48 0
-29 -3 -90 0
99 69 -56 0
40 -35 -90 0
16 46 68 0
2 -92 -100 0
-52 2 -89 0
63 -48 -59 0
6 19 56 0
-12 74 21 0
-80 -104 -100 0
-98 -58 93 0
-93 -56 16 0
-103 -87 -49 0
66 43 -67 0
60 93 86 0
80 -85 -69 0
54 46 -99 0
-80 -100 -34 0
4 38 3 0
86 91 11 0
101 89 100 0
90 82 42 0
-50 -6 -8 0
-27 16 -46 0
-17 12 16 0
46 54 23 0
-67 -94 -55 0
96 -4 -87 0
51 -69 -87 0
59 -91 -18 0
-20 -104 88 0
-69 -3 -92 0
5 -48 38 0
-31 -99 -43 0
-65 23 73 0
49 -62 -67 0
-50 -24 -8 0
1 52 104 0
52 49 -105 0
32 49 -7 0
-60 -12 56 0
-10 -70 -68 0
-5 -77 41 0
-61 55 103 0
-27 45 60 0
62 -21 18 0
-19 41 -102 0
45 -83 88 0
-59 -65 -80 0
81 99 6 0
55 42 61 0
-51 -75 77 0
50 71 54 0
22 94 45 0
-61 -102 52 0
-43 72 -1 0
2 -13 70 0
60 67 11 0
-4 40 79 0
72 -27 28 0
-99 -91 -15 0
-33 65 31 0
64 -86 -2 0
40 -16 86 0
-33 66 42 0
-38 96 42 0
16 94 -11 0
-78 14 1 0
-50 -58 80 0
50 -30 101 0
-83 46 -18 0
-10 -38 105 0
-13 3 29 0
69 -47 -96 0
63 -20 -86 0
21 56 -87 0
62 57 103 0
-59 -78 37 0
-78 87 -81 0
-77 85 -63 0
-97 41 27 0
31 -72 -18 0
-71 39 -84 0
27 -62 12 0
-87 77 -32 0
68 -28 11 0
80 -49 -15 0
61 101 -13 0
-16 -78 -80 0
86 16 36 0
104 9 92 0
60 22 7 0
12 -29 -40 0
-32 83 -67 0
22 99 -61 0
-93 40 -1 0
-4 40 -77 0
-71 -82 45 0
65 -51 -41 0
-44 65 -33 0
10 -90 49 0
47 100 61 0
-59 -33 -77 0
-37 16 24 0
-31 35 -85 0
41 47 98 0
30 51 -2 0
-47 21 17 0
55 -98 -18 0
-92 -13 38 0
67 4 -42 0
99 -72 -73 0
22 -71 58 0
-81 102 -73 0
-54 -29 53 0
87 101 54 0
32 41 -95 0
-56 -53 38 0
-88 48 -70 0
-68 -16 92 0
-80 -90 -12 0
-24 -28 -30 0
-57 27 -60 0
82 30 -19 0
-100 92 59 0
-66 -13 -57 0
45 -70 53 0
58 -90 -76 0
-9 46 85 0
28 -71 -49 0
15 -46 -14 0
-36 59 61 0
39 -79 55 0
-99 -35 -90 0
67 -50 -77 0
81 -56 94 0
-91 94 71 0
-14 -43 47 0
-13 -97 62 0
76 44 -86 0
88 -60 -8 0
90 -21 19 0
28 -36 -76 0
-39 -94 -97 0
-36 -86 -93 0
63 -73 85 0
-81 -63 -94 0
-61 -73 -33 0
-93 85 -33 0
-49 4 -86 0
69 57 104 0
17 82 -86 0
-64 95 -39 0
-4 -11 -72 0
-96 -94 -102 0
68 81 34 0
-25 14 -44 0
-4 -33 41 0
29 73 -42 0
-87 10 98 0
86 9 -24 0
30 -48 12 0
66 -40 69 0
-50 27 12 0
-25 -46 30 0
-67 -91 16 0
94 101 -63 0
-82 84 101 0
87 24 89 0
-99 -67 -102 0
99 89 -100 0
-51 -48 75 0
-92 -93 83 0
30 -89 -18 0
-52 -53 88 0
56 105 4 0
5 64 -56 0
-66 33 28 0
-40 -6 101 0
36 -98 -5 0
79 -52 -51 0
10 -83 48 0
-99 95 76 0
-72 -81 -25 0
-38 -3 -39 0
47 -4 -98 0
-25 35 -30 0
-9 -23 93 0
87 -56 -60 0
-5 -94 -59 0
-4 100 91 0
29 11 35 0
-16 -80 3 0
-48 -69 63 0
-2 -24 63 0
38 -71 51 0
43 78 41 0
-39 -43 97 0
-38 -89 -59 0
11 -103 -10 0
-39 -75 -102 0
32 31 78 0
-46 64 50 0
-60 -40 -83 0
98 37 -80 0
-44 82 -94 0
-21 11 -50 0
87 46 80 0
32 -93 -55 0
-35 -100 -1 0
-7 104 13 0
-69 22 91 0
34 -27 -85 0
