c source SATLIB-style GENERATED (not the literal SATLIB archive)
c generator LogicalOptimizer.Tests SatCorpusGenerator
c kind planted-3sat
c expected SAT
c variables 110
c clauses 469
c ratio 4.26
c seed 12006
c note SAT by construction: planted assignment satisfies every clause
p cnf 110 469
62 -43 -18 0
103 -22 -14 0
39 -55 25 0
-109 82 48 0
41 -77 -106 0
22 -51 107 0
55 -51 68 0
11 -77 69 0
8 4 49 0
103 -81 -23 0
68 64 76 0
88 -97 86 0
52 -95 87 0
-46 -100 22 0
-84 -7 -101 0
-41 70 77 0
102 -70 40 0
-38 36 -107 0
-110 -79 -78 0
33 -24 -74 0
86 -13 36 0
-45 86 90 0
63 21 -31 0
-57 71 -95 0
77 107 65 0
-37 -18 -86 0
-92 -22 21 0
94 -72 77 0
-9 55 57 0
-87 -96 -73 0
-37 -56 62 0
31 53 -43 0
-36 87 106 0
1 90 -94 0
-90 -51 59 0
39 -5 44 0
69 -36 83 0
-71 -106 16 0
-108 -53 -72 0
-31 35 -89 0
-51 60 40 0
99 29 62 0
84 104 -66 0
100 -11 -9 0
-78 28 46 0
91 67 -35 0
-32 21 93 0
105 88 45 0
35 -95 10 0
-93 17 65 0
87 42 1 0
-105 48 58 0
-86 21 69 0
17 35 25 0
-1 70 88 0
-15 -53 14 0
-23 53 -49 0
57 49 -81 0
79 -108 -89 0
-92 45 -20 0
75 -108 -104 0
-102 -109 29 0
-24 -96 -69 0
106 -24 19 0
-78 -90 -41 0
65 1 -79 0
29 78 9 0
-21 34 -102 0
-23 -61 -46 0
-56 80 -48 0
-61 4 -81 0
-2 -106 45 0
-65 93 88 0
59 -110 -42 0
56 -70 -55 0
26 -51 73 0
70 -63 26 0
53 27 -105 0
79 -77 72 0
7 31 83 0
-90 22 75 0
39 -30 -45 0
-53 -34 98 0
29 92 54 0
-22 69 -85 0
-52 87 -76 0
57 89 106 0
58 -17 -28 0
85 -80 105 0
-16 -65 -81 0
83 32 -33 0
-46 66 24 0
-26 48 -19 0
97 20 -53 0
66 16 -62 0
-95 20 48 0
13 -8 -110 0
-86 55 83 0
-67 -73 109 0
-31 -105 -15 0
95 49 1 0
89 -86 -16 0
-46 -61 -22 0
85 -71 -3 0
88 37 31 0
11 66 -52 0
-91 62 15 0
2 34 94 0
24 -69 -43 0
70 50 99 0
82 86 45 0
-24 9 -73 0
4 -55 -76 0
-24 -103 -91 0
93 -58 79 0
15 -11 -109 0
12 70 -10 0
88 42 -103 0
-72 -83 -103 0
72 -41 63 0
-7 1 51 0
14 83 50 0
-20 73 -30 0
-14 8 -85 0
23 31 -20 0
-59 29 -45 0
-37 56 55 0
-67 -55 76 0
-76 -77 -5 0
-11 1 -94 0
-77 -52 96 0
-55 -51 80 0
50 -82 63 0
70 -3 -81 0
-87 10 -13 0
-37 -89 -71 0
-97 -58 17 0
-25 75 -88 0
-56 -101 -108 0
-98 36 107 0
-38 -21 -16 0
-11 93 69 0
-53 37 -85 0
25 100 -7 0
-95 -87 107 0
-101 10 -34 0
104 -27 89 0
12 98 -95 0
-42 1 110 0
107 17 -63 0
-47 -110 -24 0
-81 108 109 0
8 15 -97 0
5 80 51 0
101 58 -110 0
41 13 -79 0
19 -99 106 0
89 103 91 0
77 1 96 0
-103 59 -90 0
38 66 40 0
-86 -77 42 0
-44 102 32 0
-4 -91 102 0
4 -40 30 0
-42 -50 -11 0
-66 107 -41 0
36 3 7 0
95 37 77 0
-100 81 79 0
-39 6 -33 0
46 -109 -48 0
14 -46 17 0
-4 -44 -107 0
-75 4 6 0
-98 5 -30 0
4 -47 77 0
-24 88 -92 0
30 -60 -15 0
-39 -64 29 0
103 94 105 0
51 60 -40 0
-1 -93 74 0
82 -47 -32 0
16 63 25 0
-56 41 -10 0
-68 41 -57 0
-22 -106 -59 0
2 -29 -70 0
-62 51 -38 0
-35 -98 106 0
-102 15 -34 0
22 110 17 0
-10 28 77 0
-94 33 -87 0
62 6 -69 0
-38 -33 18 0
-39 -96 9 0
18 35 -53 0
47 -83 1 0
110 -45 -13 0
62 -84 -63 0
-106 -17 13 0
24 -4 -82 0
48 72 -107 0
-64 70 -82 0
-64 -50 4 0
65 -60 87 0
46 26 -11 0
-74 96 -84 0
88 49 -69 0
20 -96 89 0
67 54 60 0
3 -73 79 0
55 -86 35 0
35 -14 -90 0
-22 16 -1 0
29 25 58 0
-81 37 -104 0
58 106 -18 0
-55 4 -17 0
-44 106 96 0
64 -25 -12 0
107 33 -20 0
-41 27 -75 0
-109 -62 -64 0
82 21 81 0
99 -31 -82 0
50 43 -21 0
37 -110 47 0
-3 99 -5 0
1 -31 -59 0
-27 24 1 0
-69 -104 85 0
-94 -89 -45 0
-51 66 44 0
34 11 -25 0
10 -31 62 0
-57 -93 109 0
-31 32 67 0
-13 74 105 0
-70 18 81 0
-58 71 -15 0
50 96 -52 0
53 -9 -60 0
-77 16 -107 0
15 61 -37 0
-105 110 87 0
-25 -68 105 0
84 100 63 0
-95 -41 81 0
-71 -51 -19 0
49 61 -77 0
78 9 -37 0
71 64 -13 0
-34 21 17 0
20 -97 57 0
10 18 22 0
51 -30 60 0
22 -75 -94 0
20 86 68 0
-67 32 4 0
80 -64 -109 0
-65 -83 6 0
13 70 68 0
93 92 -63 0
-93 -85 -25 0
22 39 -105 0
9 -76 103 0
-79 27 73 0
-67 51 -39 0
-69 -23 104 0
1 -45 -51 0
30 -13 -82 0
-40 -2 -48 0
12 -26 -79 0
-110 51 -104 0
16 -96 45 0
-55 -33 -53 0
83 -40 -59 0
30 12 25 0
98 -53 -81 0
70 -17 13 0
-51 110 2 0
-56 83 -41 0
-104 42 41 0
71 -74 106 0
12 37 -67 0
41 -59 31 0
-65 -88 89 0
40 -89 28 0
-99 43 58 0
90 103 -99 0
-35 80 68 0
-31 91 -64 0
17 -6 27 0
-95 -9 -91 0
-94 -81 27 0
-77 -44 -42 0
28 -88 -44 0
-82 -36 -8 0
1 -89 13 0
105 -43 -16 0
95 -48 -11 0
-51 -45 50 0
78 12 96 0
-19 -10 29 0
-26 95 -4 0
20 8 -80 0
50 -16 -25 0
-7 10 47 0
-23 -98 -65 0
-64 19 13 0
-67 -27 84 0
-45 -62 1 0
104 -93 80 0
-89 3 -87 0
-66 57 -15 0
89 -8 70 0
15 13 47 0
-28 68 82 0
-4 -93 5 0
-108 -49 21 0
43 1 30 0
-51 -42 105 0
70 -59 77 0
90 -72 45 0
-19 -82 8 0
79 -10 -86 0
-59 -51 94 0
58 -29 -77 0
-88 99 104 0
-27 -107 -52 0
-85 -98 -3 0
-47 95 40 0
90 65 -71 0
-97 16 -15 0
-2 4 81 0
26 -6 -90 0
46 27 -73 0
-60 16 -47 0
36 -110 107 0
-70 8 -98 0
71 -101 88 0
46 49 4 0
100 68 2 0
51 19 89 0
-16 -19 7 0
69 -49 89 0
-16 33 -62 0
-69 20 103 0
-14 -48 88 0
-87 62 80 0
-41 -81 -77 0
-37 92 -109 0
49 53 81 0
-15 -35 1 0
-76 82 103 0
55 -45 -23 0
11 8 72 0
37 41 91 0
-11 79 -67 0
-20 -42 -96 0
-61 -102 34 0
95 5 -102 0
89 -76 -34 0
-33 -100 -110 0
89 -46 -82 0
-96 68 -78 0
-6 -17 -20 0
-41 86 -108 0
-48 -110 54 0
105 58 -95 0
22 -54 -24 0
23 -26 91 0
73 30 45 0
62 64 -32 0
100 81 -57 0
-29 -109 -72 0
-97 89 59 0
38 -8 34 0
91 -101 -58 0
109 13 43 0
-78 42 -15 0
1 -84 59 0
3 94 -11 0
66 39 -93 0
-9 -99 -6 0
20 76 -69 0
-5 87 -66 0
65 40 39 0
-90 -106 -8 0
55 37 -39 0
-51 30 -27 0
-67 91 31 0
-88 -107 102 0
-86 -62 -106 0
-61 -11 86 0
76 36 -3 0
-92 8 53 0
-108 -91 -51 0
-60 75 103 0
-38 -76 -7 0
12 -15 89 0
-51 -95 -29 0
9 -5 -77 0
10 33 -101 0
-83 -69 1 0
36 76 -97 0
76 99 36 0
-64 -8 -109 0
-105 13 -21 0
-106 107 1 0
69 10 31 0
-22 -69 -62 0
-85 -107 -100 0
84 -2 -3 0
-65 74 23 0
81 -16 -66 0
-4 44 87 0
27 -34 -24 0
2 -13 44 0
14 -65 -30 0
7 26 -19 0
-65 29 -109 0
-4 -65 -73 0
-43 86 -75 0
51 -40 -34 0
89 19 -74 0
44 52 90 0
-34 -24 37 0
-86 84 23 0
91 69 -51 0
15 -38 21 0
44 53 -106 0
52 -46 103 0
-68 -67 -39 0
-37 33 -102 0
-81 87 -15 0
-61 -43 -34 0
-64 71 -42 0
7 -37 -86 0
50 35 86 0
12 -82 -20 0
31 -28 100 0
69 -58 -27 0
37 -65 63 0
28 -96 40 0
-12 35 91 0
-51 89 -77 0
37 85 61 0
24 3 -91 0
-64 -90 65 0
-12 74 -52 0
49 86 -92 0
-55 -76 92 0
-63 -11 -3 0
-103 -38 57 0
-98 -84 9 0
-71 79 62 0
74 -27 -11 0
82 -8 -59 0
36 -48 95 0
-103 98 -20 0
-46 100 18 0
-2 -31 65 0
-54 60 -55 0
76 72 103 0
49 -33 -21 0
