c source SATLIB-style GENERATED (not the literal SATLIB archive)
c generator LogicalOptimizer.Tests SatCorpusGenerator
c kind planted-3sat
c expected SAT
c variables 115
c clauses 490
c ratio 4.26
c seed 12007
c note SAT by construction: planted assignment satisfies every clause
p cnf 115 490
-86 28 -32 0
-109 22 -69 0
20 103 49 0
-93 10 37 0
-30 -13 84 0
1 -51 -15 0
-17 -84 85 0
-3 90 -6 0
111 -55 105 0
-92 91 93 0
107 -42 27 0
-72 80 -45 0
-47 -8 -34 0
-31 -71 88 0
32 -79 -65 0
-91 -21 27 0
-13 71 -95 0
44 -15 -45 0
83 -95 -97 0
-55 112 86 0
-58 59 -3 0
-35 -104 30 0
97 -32 68 0
-11 103 -87 0
102 74 -56 0
-79 41 -56 0
73 83 9 0
-65 98 110 0
34 42 45 0
-87 14 20 0
110 -100 -48 0
34 -90 9 0
71 -93 -84 0
43 -38 7 0
50 -79 29 0
54 109 77 0
-17 76 -50 0
-26 103 61 0
92 66 -30 0
24 -110 87 0
-78 -1 -106 0
66 -5 103 0
-48 -96 -90 0
-93 26 -21 0
-67 79 -28 0
-69 -8 -86 0
-71 8 58 0
-91 81 90 0
-2 18 24 0
-93 43 -21 0
-98 -114 -102 0
-34 103 38 0
115 -75 -18 0
85 -21 62 0
-32 81 85 0
-102 -74 -41 0
104 -7 -26 0
-80 70 10 0
80 44 60 0
10 78 -27 0
9 -69 94 0
78 -44 -113 0
67 68 47 0
-37 60 -75 0
-83 -58 13 0
48 81 -42 0
70 -109 68 0
-28 -99 -85 0
9 -22 10 0
63 69 -13 0
-66 98 113 0
-26 59 -34 0
-50 -114 -33 0
81 -110 31 0
-28 -99 -18 0
-28 -91 70 0
-29 87 -75 0
91 36 102 0
31 96 44 0
-45 20 70 0
-113 74 -79 0
19 3 60 0
105 -74 -78 0
-52 107 -32 0
38 66 -25 0
103 -48 59 0
-77 54 39 0
37 21 -4 0
82 -78 11 0
-82 102 -39 0
-81 -83 -108 0
-97 76 66 0
109 100 -4 0
-114 50 -63 0
95 73 -43 0
-102 -45 90 0
114 12 86 0
-97 6 -71 0
52 20 -111 0
60 37 44 0
-65 -93 110 0
60 -84 115 0
-16 -62 69 0
-91 -11 -80 0
34 76 75 0
93 59 -96 0
-46 -108 81 0
-114 -28 98 0
-108 94 -21 0
105 25 4 0
-18 -108 -100 0
-36 9 31 0
10 -38 -86 0
-51 -78 4 0
50 -33 42 0
99 -4 105 0
68 -48 -37 0
15 29 -82 0
-83 71 40 0
22 -9 63 0
-31 62 -18 0
83 85 70 0
-1 -56 -98 0
-98 -62 -2 0
12 -65 87 0
31 78 -84 0
-49 73 64 0
-13 -49 -113 0
-54 -109 72 0
-81 -74 37 0
-34 -92 -65 0
68 -55 -101 0
-34 50 -82 0
58 25 89 0
75 103 102 0
13 -75 -88 0
64 -58 -34 0
-55 32 111 0
-62 113 -64 0
41 25 -37 0
-83 49 19 0
24 98 -71 0
-28 -58 52 0
-114 45 -55 0
-38 -19 21 0
26 57 -33 0
-23 -73 52 0
-94 -111 63 0
15 36 -33 0
-97 87 -88 0
-2 9 42 0
-107 -78 -115 0
-77 -35 60 0
5 -2 -1 0
-10 -5 64 0
49 -102 -92 0
92 -90 4 0
-92 86 77 0
-108 -113 -1 0
35 -49 76 0
57 -65 -8 0
-114 91 26 0
-99 10 108 0
54 8 22 0
51 16 92 0
-16 71 -55 0
-84 -72 94 0
-114 -72 112 0
-36 26 28 0
-29 -12 72 0
-72 -40 -6 0
16 -75 -43 0
-88 65 -75 0
54 28 -101 0
104 114 56 0
-108 10 -73 0
-17 97 -50 0
-7 -74 -73 0
82 72 92 0
-32 -26 -10 0
-75 -54 -104 0
79 -53 101 0
56 69 81 0
110 -7 103 0
-83 -70 -49 0
23 -111 -100 0
-105 114 13 0
96 35 -93 0
-66 -18 -88 0
-88 -114 -7 0
82 8 57 0
-20 44 91 0
-18 -16 -94 0
-59 61 -70 0
94 59 -5 0
80 10 7 0
-74 62 -19 0
94 -72 -115 0
-79 1 39 0
-38 103 -4 0
113 93 4 0
112 4 -74 0
60 -113 1 0
113 29 79 0
89 75 -100 0
7 -62 -93 0
-42 -107 -18 0
-26 15 -69 0
-70 -100 11 0
79 -56 -9 0
-57 -18 7 0
-44 18 7 0
57 74 53 0
-88 60 -38 0
-104 10 11 0
72 -60 -53 0
-33 -79 -68 0
-112 99 26 0
-2 16 -101 0
-6 11 110 0
-91 -88 -32 0
11 84 -90 0
69 -115 -15 0
71 80 -18 0
-100 54 69 0
-98 -44 -57 0
16 30 81 0
28 -75 -82 0
-106 -114 -32 0
74 57 91 0
57 -5 -2 0
8 -75 24 0
16 27 -22 0
-108 -97 66 0
-7 98 -91 0
-8 19 73 0
-91 1 -106 0
-57 3 -99 0
71 52 -110 0
99 31 -107 0
-39 105 -60 0
39 -84 105 0
100 37 102 0
-115 -49 -15 0
108 104 14 0
-45 -26 -107 0
112 15 -70 0
82 24 14 0
113 -114 -100 0
-27 -74 8 0
-45 -35 -61 0
12 29 -47 0
68 -74 -46 0
-97 94 59 0
37 22 49 0
90 -48 -18 0
-39 114 40 0
-90 -108 78 0
21 -112 76 0
97 52 -28 0
22 86 -99 0
-91 -39 -78 0
35 -38 92 0
45 67 -31 0
-41 -80 115 0
67 77 -38 0
78 89 -17 0
5 76 15 0
35 13 -89 0
-67 50 59 0
-20 -105 -49 0
-9 58 53 0
-91 76 44 0
74 108 -25 0
-66 48 -81 0
64 -41 36 0
-46 -97 -47 0
-89 92 15 0
-106 -18 -114 0
-98 8 68 0
-81 26 104 0
-29 -84 -86 0
-48 -84 -29 0
-94 71 9 0
42 64 -54 0
-2 -23 -52 0
-98 -75 -70 0
2 41 52 0
34 -35 -6 0
68 -81 -67 0
-40 37 -11 0
-88 -54 108 0
-2 -93 -15 0
95 56 -6 0
-112 92 83 0
61 -97 -3 0
-66 14 36 0
-75 100 -45 0
-98 -76 35 0
68 94 63 0
88 -75 15 0
-57 82 32 0
-11 25 88 0
90 -97 27 0
65 33 -53 0
-66 38 -102 0
-61 62 47 0
67 -99 -7 0
-49 83 -82 0
-50 -4 -104 0
6 -43 60 0
48 -98 5 0
-22 96 112 0
-74 77 4 0
-99 -35 -73 0
-88 81 83 0
15 95 28 0
15 -33 87 0
84 38 -8 0
-55 -91 -9 0
39 81 -93 0
11 -80 16 0
-83 74 -26 0
63 -64 29 0
-74 -58 -108 0
96 -53 4 0
-95 101 -114 0
81 -77 -58 0
55 -58 -52 0
-93 -43 -78 0
-13 -35 -114 0
69 -63 -65 0
66 -29 -36 0
115 65 -69 0
45 -27 -41 0
17 -98 -108 0
-81 -105 -83 0
-1 -112 86 0
-69 68 74 0
11 108 49 0
-76 -69 -41 0
-42 56 60 0
90 -70 -1 0
66 107 63 0
-102 -65 77 0
58 115 56 0
72 98 6 0
-8 -94 -52 0
-10 63 71 0
-105 41 -32 0
65 69 -28 0
-53 -32 -69 0
53 -100 -51 0
-11 110 -106 0
82 -99 9 0
82 -96 -101 0
96 57 22 0
56 -89 -75 0
-55 -15 88 0
-111 -98 30 0
72 6 35 0
-79 26 42 0
-93 1 -94 0
-55 -20 62 0
93 -105 76 0
31 101 92 0
-3 82 59 0
64 -84 86 0
-61 71 79 0
10 13 52 0
-3 109 82 0
2 62 -83 0
60 106 82 0
73 -81 114 0
67 -84 -65 0
-108 -53 -32 0
70 -69 10 0
46 -95 -3 0
-84 38 -52 0
22 77 11 0
18 84 62 0
-45 -21 103 0
71 -70 -65 0
-81 58 5 0
-57 104 -4 0
-92 23 -20 0
-84 -15 48 0
97 -27 -93 0
25 81 -3 0
-58 -55 16 0
-73 98 10 0
-44 69 -88 0
76 -81 94 0
-111 -45 64 0
-58 28 -26 0
40 106 -65 0
-60 56 -63 0
-108 58 -114 0
-80 -52 -63 0
9 -25 -35 0
89 75 13 0
42 -52 24 0
-62 -1 14 0
56 83 113 0
-6 74 44 0
-53 33 -76 0
-59 89 -38 0
60 74 -108 0
83 -16 60 0
76 31 -71 0
-7 -74 36 0
52 72 -95 0
111 -106 36 0
-13 71 -54 0
-89 52 -61 0
-2 -52 -76 0
-60 -69 -5 0
82 -26 -68 0
-58 33 25 0
25 74 -36 0
-104 43 57 0
48 62 73 0
-73 106 16 0
-45 -79 -86 0
57 19 82 0
52 103 -1 0
-85 84 38 0
101 -104 98 0
-98 2 113 0
71 30 80 0
-14 46 49 0
64 -86 -37 0
-60 -30 -56 0
109 -34 64 0
-15 -114 107 0
27 -25 47 0
111 44 19 0
-51 -15 -29 0
-60 -85 -63 0
13 27 -54 0
20 -88 -1 0
-70 -51 -89 0
-16 53 -57 0
25 29 -97 0
-46 56 -49 0
-4 87 -80 0
56 15 -96 0
-18 88 -97 0
56 14 54 0
83 -80 76 0
26 32 -64 0
-52 -80 75 0
21 -64 -34 0
-80 113 -18 0
65 37 106 0
28 57 37 0
-70 -85 -63 0
-96 -29 -82 0
-63 -85 -79 0
57 -102 -114 0
-19 69 24 0
-109 56 95 0
-90 114 -27 0
-88 15 -16 0
-63 -90 -64 0
-31 -66 -108 0
53 -85 -29 0
-63 77 -19 0
-86 -17 82 0
-5 57 7 0
105 27 -108 0
104 32 -60 0
96 -29 66 0
-27 11 -115 0
83 12 -61 0
86 51 99 0
72 -26 37 0
-26 86 79 0
55 38 19 0
105 -44 -53 0
-73 -71 -17 0
-2 -51 -101 0
-8 -97 -62 0
100 -86 -11 0
-46 48 -44 0
-69 -29 -59 0
20 -32 -11 0
21 111 -90 0
-26 -88 -84 0
-19 -93 38 0
