c source SATLIB-style GENERATED (not the literal SATLIB archive)
c generator LogicalOptimizer.Tests SatCorpusGenerator
c kind planted-3sat
c expected SAT
c variables 125
c clauses 532
c ratio 4.26
c seed 12009
c note SAT by construction: planted assignment satisfies every clause
p cnf 125 532
-17 -13 -43 0
-11 -3 -43 0
-75 116 -111 0
115 16 89 0
-35 -108 -11 0
55 3 64 0
-23 -61 -96 0
48 -70 16 0
-70 -33 -63 0
99 -80 -19 0
15 -28 47 0
-52 -106 104 0
-45 106 -16 0
-19 75 -72 0
118 10 106 0
4 8 105 0
-38 -2 85 0
-100 -61 -57 0
106 69 66 0
35 123 -83 0
-120 -69 51 0
-68 -85 -96 0
-60 95 114 0
-61 60 -3 0
-64 98 80 0
-20 67 -9 0
9 97 -32 0
-117 -96 113 0
-92 69 -55 0
14 -13 -67 0
-114 98 49 0
109 99 81 0
-53 110 -2 0
124 -117 -46 0
-61 67 60 0
106 105 70 0
-50 -16 103 0
-22 -123 55 0
-74 -53 -78 0
78 -71 -76 0
-13 -97 -35 0
35 -65 -72 0
-75 -29 -112 0
120 -96 85 0
-111 -99 -76 0
-123 -34 -58 0
81 46 -95 0
59 -55 -105 0
69 113 82 0
-43 -41 -39 0
97 -87 41 0
78 -24 33 0
-82 -72 20 0
67 -31 120 0
111 85 37 0
-43 80 -109 0
18 -54 41 0
37 -112 -9 0
47 -102 -116 0
73 -89 -24 0
-54 -104 96 0
-3 19 41 0
-40 41 62 0
-11 -92 -88 0
-53 -56 29 0
120 38 -61 0
66 -28 16 0
-118 -69 90 0
28 85 79 0
19 63 -105 0
25 -13 -38 0
-72 119 -104 0
119 -88 101 0
-121 70 72 0
105 -33 -48 0
55 -121 78 0
93 -84 117 0
46 38 95 0
113 -64 -49 0
-37 51 -17 0
25 -91 -105 0
41 66 -122 0
5 34 -81 0
93 -85 115 0
40 33 87 0
79 -50 12 0
-45 107 -105 0
32 77 -11 0
10 -33 121 0
-50 -43 -82 0
79 69 -10 0
23 -56 -96 0
-105 13 -92 0
30 104 -52 0
-9 -34 99 0
83 92 26 0
4 -59 56 0
-7 -94 10 0
109 -13 107 0
-76 -27 -40 0
-80 -57 -46 0
115 -119 -101 0
71 -116 -36 0
35 -71 118 0
-49 122 -73 0
-75 -4 -26 0
48 113 -75 0
-66 -76 -30 0
-39 -20 -18 0
29 -71 55 0
-47 50 -42 0
45 -34 -75 0
-85 14 -109 0
40 -113 82 0
3 47 -64 0
10 -30 -34 0
100 52 86 0
-33 -69 -38 0
114 36 88 0
90 37 77 0
-106 -59 66 0
3 25 96 0
-2 61 41 0
-16 -103 -86 0
116 113 -105 0
65 -31 -64 0
93 -2 -88 0
-18 101 -47 0
49 58 55 0
-21 -41 -78 0
-72 -81 103 0
121 70 115 0
56 -80 36 0
-31 -72 -113 0
48 26 19 0
-6 -51 -125 0
-41 -105 37 0
117 45 34 0
119 73 -30 0
-84 -112 -38 0
34 -84 28 0
90 50 30 0
66 -100 109 0
87 100 -9 0
101 5 -108 0
-4 31 53 0
89 -38 63 0
-112 -47 -10 0
42 -6 113 0
-47 -71 32 0
23 -40 -4 0
-64 44 33 0
50 -37 51 0
-66 55 76 0
19 51 -124 0
-81 -27 63 0
43 27 5 0
37 -56 -122 0
34 66 -67 0
91 7 -78 0
-66 -26 124 0
-68 112 49 0
-43 65 -87 0
-76 3 -110 0
-23 -117 -106 0
92 -18 96 0
80 11 58 0
-17 -68 72 0
90 -4 -86 0
-94 -29 -89 0
14 57 33 0
82 49 -34 0
-75 64 50 0
87 -81 57 0
106 -33 93 0
-47 63 -24 0
-35 28 -65 0
-93 -44 96 0
7 28 53 0
-7 -68 -26 0
-105 108 -115 0
-31 -90 -53 0
12 60 77 0
-116 64 -24 0
53 -27 19 0
-54 -12 -18 0
-53 -2 73 0
-81 67 20 0
-63 -53 96 0
84 121 76 0
72 -44 -9 0
-4 43 25 0
46 -110 -95 0
-78 98 -97 0
-103 -69 -102 0
-4 66 69 0
34 29 20 0
38 94 53 0
-114 83 -75 0
98 96 -93 0
-14 -61 -38 0
47 76 -49 0
21 -47 93 0
70 -47 1 0
84 -38 25 0
-89 117 37 0
-76 -59 -101 0
-56 120 -87 0
27 66 116 0
37 39 27 0
-14 -99 65 0
11 -26 34 0
-72 -66 61 0
-122 55 -18 0
103 80 98 0
-57 -123 79 0
-91 -3 59 0
-97 -115 -106 0
90 96 92 0
-16 50 66 0
-112 119 -72 0
-100 -94 -60 0
37 -93 78 0
-20 72 67 0
116 -74 -76 0
-90 -3 113 0
-95 -92 70 0
119 -36 84 0
98 55 116 0
-52 81 46 0
24 -52 112 0
94 -49 8 0
-41 -88 -37 0
-64 106 -27 0
69 92 -72 0
-110 69 26 0
-118 69 23 0
-51 -14 -86 0
15 -83 -60 0
122 107 -95 0
-22 113 -4 0
-47 86 31 0
55 106 61 0
120 96 119 0
-77 -109 -87 0
104 46 53 0
113 82 123 0
-22 -79 18 0
-12 88 -91 0
28 -67 -83 0
85 3 -81 0
-3 44 4 0
-29 92 -61 0
-33 -98 -4 0
109 117 -17 0
80 -99 101 0
93 -102 -53 0
-64 55 -43 0
-82 41 -115 0
1 56 -93 0
-75 9 -12 0
-11 24 28 0
-13 122 67 0
-67 -33 -81 0
91 -118 -93 0
1 41 18 0
-113 -71 121 0
-38 -103 117 0
35 -41 48 0
26 87 -56 0
106 -94 82 0
24 -99 -97 0
63 -98 -84 0
-84 17 24 0
55 91 -47 0
123 -52 -43 0
-81 113 -124 0
-41 -20 69 0
-45 -108 11 0
44 -25 -86 0
10 84 32 0
-9 -109 104 0
-92 -29 -42 0
120 25 96 0
-74 31 11 0
-118 111 21 0
-23 89 39 0
102 -3 -46 0
-98 50 19 0
-104 -100 98 0
-85 -62 97 0
117 -34 111 0
112 -30 -12 0
110 122 -108 0
-92 83 3 0
50 -99 -91 0
-76 110 -48 0
113 -38 68 0
98 34 27 0
39 -9 30 0
8 4 -83 0
92 -49 52 0
115 99 -33 0
6 -118 69 0
-94 -89 109 0
-85 -51 74 0
-60 -47 111 0
77 4 -16 0
-118 30 -46 0
72 -88 -113 0
-107 -101 10 0
-83 -87 29 0
20 -33 80 0
-61 105 88 0
60 -19 77 0
69 3 -104 0
31 -100 71 0
89 -113 98 0
-45 94 87 0
118 85 39 0
76 47 -115 0
-109 -90 -114 0
11 -81 -54 0
-92 69 24 0
125 -85 -122 0
-77 65 79 0
123 -81 -95 0
-105 109 54 0
65 33 77 0
-62 5 -114 0
-69 71 95 0
110 20 27 0
-27 -48 -122 0
99 -60 -76 0
41 49 26 0
54 -35 63 0
110 -109 -82 0
35 53 -104 0
-118 -40 39 0
-9 96 8 0
90 -103 84 0
-73 -120 -85 0
104 -86 -26 0
-48 -34 36 0
105 -108 92 0
104 105 -31 0
84 1 102 0
-58 45 -20 0
-49 -25 110 0
-94 69 -101 0
89 -108 -80 0
61 -94 -79 0
-114 -7 30 0
-1 -51 109 0
-48 -114 17 0
-109 -37 -59 0
-30 29 -31 0
1 15 -110 0
-17 -99 -76 0
-106 30 37 0
61 -6 53 0
-66 104 -100 0
95 13 -77 0
9 3 -72 0
66 -67 86 0
27 99 -62 0
-82 98 78 0
-33 80 -119 0
79 10 31 0
-59 -1 -8 0
106 -83 -35 0
-117 -86 -96 0
34 67 -110 0
-80 -1 39 0
31 -10 50 0
-79 -96 25 0
-8 -28 -110 0
-124 -88 -63 0
75 29 -106 0
-71 -114 -16 0
74 113 -10 0
66 65 -106 0
-95 -84 -51 0
-120 90 26 0
-62 25 -65 0
46 31 -54 0
-59 70 49 0
-2 -26 -7 0
22 -99 120 0
-61 -6 59 0
38 113 -42 0
-64 70 36 0
-57 -34 89 0
-42 73 66 0
-105 -11 47 0
96 78 36 0
120 22 15 0
-58 -61 70 0
79 66 -30 0
-46 -57 -117 0
-107 -119 62 0
-111 76 104 0
-24 -52 80 0
33 97 -123 0
-33 88 -3 0
28 69 -29 0
-119 -98 -82 0
120 22 -20 0
-58 -4 -118 0
-17 64 19 0
-93 -104 106 0
37 -4 121 0
-26 35 108 0
67 -37 -25 0
95 6 -62 0
-33 23 108 0
41 62 26 0
-8 -56 11 0
34 -87 -114 0
94 -86 -5 0
82 11 72 0
-25 48 -28 0
-112 65 108 0
-56 -3 -8 0
113 105 32 0
11 2 73 0
109 -113 -27 0
-67 26 -20 0
-124 -85 -87 0
82 18 101 0
-114 39 106 0
-76 19 64 0
-99 60 -58 0
-93 39 -104 0
-50 -18 86 0
-80 102 61 0
-110 91 123 0
12 73 69 0
-117 91 30 0
42 29 18 0
-22 56 38 0
38 -105 -22 0
95 -47 71 0
106 -7 -34 0
14 90 18 0
-78 -47 -63 0
-33 -14 29 0
-80 -24 -49 0
120 30 3 0
18 84 -103 0
-21 -66 14 0
-77 93 -61 0
34 85 102 0
43 -125 44 0
-28 10 35 0
-32 -95 78 0
35 115 64 0
64 -2 98 0
-67 -72 2 0
36 -92 -88 0
73 51 -61 0
78 -87 -63 0
112 38 111 0
-7 -93 -36 0
-93 -2 -101 0
73 66 14 0
-96 -98 48 0
-65 -7 23 0
121 61 -33 0
-121 -108 -101 0
92 -108 74 0
99 105 102 0
103 -82 -74 0
-38 37 75 0
-24 36 50 0
31 -99 68 0
-11 -7 109 0
-84 124 77 0
-47 -105 -21 0
18 -125 21 0
49 42 -76 0
17 -79 -111 0
87 47 -78 0
65 107 43 0
37 -13 124 0
-122 31 -105 0
-75 -93 94 0
30 112 -74 0
3 100 91 0
7 -25 -29 0
-18 -73 -14 0
-106 -35 -31 0
-122 8 21 0
4 -99 -8 0
71 119 -84 0
73 99 125 0
47 116 32 0
25 5 -56 0
-38 -94 69 0
70 16 39 0
45 -17 -75 0
-72 -106 12 0
-78 -40 -51 0
-78 -69 75 0
-108 -3 40 0
65 -109 28 0
-21 16 -61 0
97 -24 -42 0
39 -43 -99 0
-95 36 -88 0
33 24 19 0
51 -26 111 0
-80 110 -35 0
-88 70 -47 0
-35 29 13 0
-61 22 10 0
-82 -39 18 0
100 -31 -91 0
-47 120 27 0
-72 78 -105 0
32 -104 106 0
13 -48 -24 0
-90 82 -116 0
111 74 26 0
-63 -109 73 0
15 -41 91 0
-84 -34 9 0
-101 -57 -52 0
99 -93 83 0
-55 -79 10 0
-65 118 -5 0
73 -39 -87 0
