c source SATLIB-style GENERATED (not the literal SATLIB archive)
c generator LogicalOptimizer.Tests SatCorpusGenerator
c kind planted-3sat
c expected SAT
c variables 120
c clauses 511
c ratio 4.26
c seed 12008
c note SAT by construction: planted assignment satisfies every clause
p cnf 120 511
-71 -15 -3 0
111 31 -96 0
-9 -69 -96 0
-15 69 4 0
-79 103 -48 0
-27 -14 42 0
22 -92 58 0
16 104 -3 0
24 82 -115 0
-48 72 -112 0
-51 -16 -111 0
-39 -38 87 0
-5 -7 87 0
-50 -68 -49 0
-113 24 106 0
-22 -71 -88 0
41 -27 118 0
-111 -61 110 0
-12 77 88 0
53 -81 -64 0
5 -95 113 0
-57 48 -50 0
43 -38 95 0
-89 22 -24 0
65 70 -50 0
24 9 -31 0
-25 56 -1 0
93 12 -26 0
84 -22 -102 0
60 -42 -41 0
92 -26 25 0
-48 8 32 0
-11 -120 107 0
-63 -55 40 0
16 -91 -65 0
79 -120 65 0
-48 -40 36 0
73 108 -15 0
-108 51 -120 0
25 79 -22 0
112 32 -66 0
3 -2 99 0
-79 -94 -18 0
-78 -50 120 0
79 -37 9 0
26 -3 -30 0
7 -92 -79 0
-100 113 5 0
-120 -35 80 0
-44 -31 -59 0
-29 -49 -119 0
4 -26 -108 0
57 -60 26 0
46 -3 63 0
-73 -29 47 0
-36 -109 -95 0
16 53 80 0
53 -82 68 0
96 -93 -59 0
118 8 -27 0
-79 13 76 0
22 -98 -61 0
86 95 -20 0
6 -106 -63 0
-98 -65 -33 0
5 -112 9 0
56 108 72 0
-78 -72 -23 0
-67 78 69 0
15 -29 -13 0
-2 73 -15 0
93 -83 -24 0
-94 86 57 0
20 106 66 0
-59 93 70 0
42 -20 -6 0
-95 -51 -64 0
77 94 -118 0
-79 -57 -85 0
-57 -71 -8 0
-23 -95 102 0
-4 -63 -18 0
95 36 110 0
-11 -3 -48 0
-66 -71 -46 0
-1 89 -79 0
106 -32 -66 0
15 -61 -87 0
-25 96 84 0
-65 -117 38 0
20 80 -117 0
88 -41 -61 0
65 -21 -17 0
-38 76 40 0
-10 -20 -36 0
34 85 95 0
-64 58 105 0
85 -95 19 0
49 72 71 0
47 -71 81 0
-11 76 -114 0
85 -82 -102 0
73 25 9 0
27 -11 -30 0
22 -92 -85 0
-38 108 -43 0
-7 -39 -33 0
-91 41 96 0
38 -36 63 0
-102 -64 117 0
87 -75 -98 0
81 -87 39 0
-70 63 43 0
-42 60 93 0
-18 -17 11 0
-80 -28 -97 0
-49 5 -73 0
-7 -83 50 0
-41 104 -44 0
-29 78 -93 0
91 -65 11 0
73 -71 -29 0
-2 -93 63 0
59 92 95 0
-66 71 -6 0
-51 55 -20 0
64 -109 -22 0
103 82 11 0
-3 -65 80 0
95 -104 -116 0
-56 73 71 0
-67 -15 101 0
-25 41 53 0
-116 -117 -16 0
41 -93 -45 0
106 -39 95 0
-53 77 -113 0
-23 -77 -17 0
-43 -29 -61 0
40 120 -85 0
-113 45 55 0
31 10 -101 0
52 24 98 0
-79 -68 2 0
-53 -114 -78 0
69 -119 -64 0
-50 -35 -74 0
-111 -23 6 0
18 -9 -70 0
59 39 66 0
67 -51 35 0
36 -120 44 0
76 -87 -5 0
46 -92 -54 0
-111 -14 -23 0
-29 47 100 0
-46 71 -73 0
-15 27 -54 0
-19 -76 -110 0
47 88 69 0
38 7 102 0
42 113 -115 0
-45 -113 6 0
-35 -15 58 0
-90 17 -109 0
22 16 101 0
-40 -92 -17 0
24 63 -106 0
-41 19 -8 0
101 -31 116 0
23 -44 -69 0
-84 36 -58 0
-41 -66 48 0
54 -76 98 0
-90 30 114 0
-38 -104 5 0
-120 7 71 0
26 -69 -110 0
-60 111 79 0
44 118 86 0
91 8 -34 0
-44 -120 -5 0
-57 26 94 0
52 79 -37 0
-87 -102 -115 0
77 -80 -108 0
-112 14 -64 0
-55 -1 -13 0
70 -119 77 0
-80 -37 -90 0
91 52 -48 0
-68 98 -8 0
80 -120 37 0
10 -5 -70 0
103 43 28 0
-58 25 -7 0
-11 -38 93 0
19 75 120 0
-99 -29 82 0
83 24 -4 0
-105 -72 94 0
114 69 -28 0
-79 42 38 0
-6 -95 109 0
92 43 -80 0
119 14 23 0
26 -81 65 0
99 4 110 0
-46 80 96 0
5 4 91 0
64 -27 14 0
71 -33 -98 0
83 -111 102 0
19 74 81 0
114 47 12 0
59 -53 -10 0
-96 -31 -45 0
42 -28 111 0
-36 -37 -58 0
-104 -105 -3 0
-60 30 42 0
74 -71 1 0
113 -65 -101 0
-39 -57 -62 0
75 -59 -49 0
98 -67 82 0
-59 19 66 0
-32 46 -55 0
-91 105 20 0
62 -23 105 0
14 5 43 0
-51 -37 -107 0
73 -28 -104 0
-84 10 -69 0
-18 39 60 0
-75 85 -79 0
-32 -119 -80 0
45 -55 -108 0
-49 -41 92 0
114 -101 -117 0
-34 104 -107 0
-96 68 64 0
6 -102 -87 0
115 -119 -75 0
5 93 -16 0
108 21 30 0
-94 83 -109 0
-97 -89 87 0
94 -87 56 0
30 -73 9 0
-80 60 -29 0
-97 102 30 0
-78 12 62 0
-15 55 -27 0
-46 -81 -37 0
-46 -61 -94 0
-13 -73 -97 0
-20 -31 -56 0
60 16 104 0
92 26 -81 0
103 -12 45 0
3 109 -65 0
-39 81 -63 0
11 -65 -20 0
42 -39 -68 0
-94 -18 -23 0
-112 35 29 0
-91 -33 -101 0
10 44 -49 0
-101 -76 87 0
-58 93 17 0
89 -110 -39 0
-82 110 -104 0
-65 -5 72 0
-95 -14 -29 0
41 13 46 0
-99 -85 -7 0
42 -87 -101 0
-77 58 -13 0
65 27 80 0
41 1 42 0
53 -73 101 0
51 -10 -97 0
87 -56 -96 0
118 -83 -61 0
19 82 -67 0
1 45 50 0
-97 -6 -37 0
-35 -34 67 0
119 -33 -94 0
6 106 -108 0
115 108 -112 0
-76 -15 52 0
12 83 85 0
52 46 -64 0
27 1 82 0
-109 93 -22 0
43 -4 -33 0
-111 54 71 0
-13 114 -53 0
100 -85 -39 0
-100 112 77 0
78 96 90 0
-85 75 -25 0
88 78 -23 0
52 67 27 0
118 -41 -40 0
82 52 17 0
3 -49 -72 0
-116 37 39 0
-58 -105 -30 0
52 72 -86 0
-46 65 26 0
72 30 -107 0
-39 48 -94 0
83 -52 16 0
-68 -82 -93 0
-59 -75 33 0
-50 -4 -117 0
-40 100 -32 0
-101 -44 -118 0
24 -113 -12 0
-6 34 -22 0
76 88 -65 0
-77 56 21 0
-37 -2 62 0
108 68 111 0
-79 -38 66 0
80 -50 65 0
80 20 -27 0
35 -80 -98 0
36 -19 -101 0
-33 28 103 0
-66 -60 -100 0
117 118 58 0
98 -39 -38 0
-71 -81 67 0
61 107 46 0
-98 -74 94 0
56 -7 113 0
-99 -83 -80 0
48 -12 -72 0
-65 111 -117 0
46 -78 -86 0
61 -99 -76 0
-70 -34 -1 0
-71 -77 22 0
54 57 -79 0
-17 -106 114 0
37 46 -5 0
25 -23 -46 0
93 -1 15 0
-98 -101 86 0
-110 60 -45 0
-78 76 44 0
97 59 -33 0
-95 53 85 0
78 1 107 0
-39 -91 -47 0
42 14 65 0
96 -92 85 0
-63 -60 116 0
112 -31 26 0
59 33 -79 0
37 -48 94 0
10 -69 -81 0
-82 -46 33 0
120 -101 -46 0
16 -6 71 0
18 34 -81 0
-89 59 -39 0
32 97 30 0
-104 82 -35 0
-94 -24 105 0
76 36 49 0
57 106 13 0
58 -120 -98 0
2 -36 -95 0
58 -97 -18 0
-88 -102 -72 0
101 120 -10 0
-70 31 1 0
-117 -102 -2 0
-17 -33 -54 0
5 54 -41 0
92 -60 -45 0
-70 -75 -105 0
96 77 -86 0
72 -96 24 0
-8 28 -25 0
78 11 -115 0
83 81 41 0
-86 -41 -59 0
-113 -48 77 0
90 80 -2 0
1 -32 -108 0
53 67 14 0
-54 -20 37 0
50 -6 94 0
24 -54 -109 0
52 -9 -61 0
22 -96 -24 0
64 2 33 0
54 -19 -18 0
28 -102 38 0
-64 -27 22 0
113 13 48 0
3 -4 52 0
-90 -48 -75 0
-50 -26 -107 0
36 120 -103 0
-8 -118 -61 0
-100 9 120 0
-115 -90 -49 0
-39 48 25 0
-119 57 35 0
-5 -73 12 0
-54 87 113 0
-47 -85 -119 0
65 24 -114 0
-64 109 -55 0
-66 35 -118 0
-103 30 78 0
47 -55 90 0
-1 62 -29 0
-28 -117 -61 0
-95 59 37 0
53 89 -69 0
-119 -4 -101 0
102 -49 -25 0
88 108 5 0
-3 -42 -33 0
-106 -50 -6 0
-94 -66 -49 0
-57 -36 -103 0
81 -64 48 0
35 -40 49 0
-24 37 -116 0
34 87 -31 0
1 -29 -100 0
21 -82 85 0
21 -65 52 0
14 -77 58 0
72 -4 31 0
42 15 107 0
16 47 -64 0
7 31 75 0
-102 40 -75 0
63 94 -111 0
-110 -34 104 0
72 113 33 0
102 -67 114 0
-24 -112 66 0
100 3 86 0
-5 -83 42 0
66 -48 -96 0
9 46 -14 0
45 -33 -87 0
-89 43 -117 0
94 89 -32 0
91 33 11 0
93 49 99 0
47 86 16 0
106 93 76 0
-28 1 27 0
-20 115 114 0
21 86 -91 0
110 -69 6 0
79 75 -118 0
-83 114 89 0
-101 47 100 0
-54 -19 -99 0
16 76 -37 0
-22 1 -43 0
-100 68 -9 0
-36 -86 70 0
-40 88 -68 0
-81 -51 -25 0
-64 -116 -84 0
4 -55 96 0
-34 -56 -36 0
39 45 8 0
-53 -77 69 0
76 -97 -61 0
72 -87 -91 0
60 112 -117 0
-63 3 70 0
56 -49 62 0
52 -59 -91 0
-105 113 75 0
95 -3 -57 0
-58 30 -24 0
101 -116 45 0
-9 -42 19 0
106 14 -18 0
23 -98 116 0
-87 -5 93 0
119 -81 -57 0
70 -67 -7 0
117 -26 -17 0
-45 -57 112 0
-86 -46 -12 0
-80 -11 70 0
115 96 -69 0
54 120 -22 0
34 -81 58 0
46 36 13 0
86 -75 -117 0
-16 15 -76 0
114 5 -4 0
3 -56 -109 0
