c source SATLIB-style GENERATED (not the literal SATLIB archive)
c generator LogicalOptimizer.Tests SatCorpusGenerator
c kind random-3sat-forced-unsat
c expected UNSAT
c variables 17
c clauses 72
c ratio 4.26
c seed 74001
c note UNSAT verified by exhaustive 2^n brute force at generation time
p cnf 17 72
-13 -2 -10 0
10 11 3 0
12 -15 -11 0
16 -15 -7 0
4 -13 7 0
13 14 -15 0
-13 -17 -3 0
10 9 -16 0
10 16 14 0
-7 13 -10 0
-8 -5 1 0
-5 8 -12 0
7 17 2 0
-2 -4 -12 0
12 -13 8 0
5 2 -12 0
-17 -16 -1 0
-2 -14 7 0
-7 -17 5 0
4 -14 -10 0
-15 11 3 0
3 -9 10 0
-8 -7 1 0
-14 -2 17 0
13 -10 -9 0
-11 -17 -4 0
-16 5 -1 0
-14 9 -12 0
3 5 -11 0
-15 -13 -16 0
-2 -14 -10 0
-12 -9 2 0
2 12 -1 0
-3 9 14 0
-11 14 9 0
-17 9 4 0
-4 13 2 0
-2 10 17 0
15 -12 7 0
17 5 -7 0
-6 -13 7 0
-2 -3 -6 0
-8 -2 9 0
16 13 -9 0
11 15 -16 0
1 -10 -6 0
-5 -16 -14 0
1 13 16 0
9 10 -15 0
13 1 17 0
2 5 -16 0
-8 12 -17 0
14 -1 -12 0
13 10 4 0
11 -16 15 0
-8 -15 -17 0
5 -13 14 0
-16 6 -1 0
-7 -12 -8 0
13 -14 -16 0
-3 2 16 0
15 9 -16 0
10 -11 -16 0
-4 -9 8 0
-14 -2 15 0
17 -16 8 0
13 11 9 0
8 -13 3 0
2 -14 -6 0
-5 -16 -10 0
-12 -2 -9 0
3 -13 -8 0
