c source SATLIB-style GENERATED (not the literal SATLIB archive)
c generator LogicalOptimizer.Tests SatCorpusGenerator
c kind random-3sat-forced-unsat
c expected UNSAT
c variables 18
c clauses 77
c ratio 4.26
c seed 76000
c note UNSAT verified by exhaustive 2^n brute force at generation time
p cnf 18 77
1 12 -16 0
-4 -9 -7 0
-16 12 -3 0
18 8 7 0
2 -17 14 0
13 -7 4 0
9 18 -8 0
16 -8 3 0
-1 -18 -4 0
-5 -10 2 0
14 1 -12 0
-12 8 1 0
-9 12 -4 0
5 -1 12 0
18 13 11 0
-15 5 2 0
8 7 11 0
4 -9 3 0
12 -2 7 0
2 13 -17 0
-1 -4 -18 0
-8 1 17 0
-13 11 10 0
1 -14 -13 0
-15 -8 -11 0
3 6 14 0
-10 -16 -8 0
2 -18 14 0
9 13 -5 0
12 1 -16 0
-10 -7 -8 0
5 -10 -12 0
14 -12 -10 0
8 -1 2 0
11 -9 -12 0
-4 8 3 0
-15 -17 9 0
11 8 5 0
11 14 -12 0
-1 -18 6 0
-18 15 -9 0
-16 -18 -13 0
2 -5 4 0
-5 -10 1 0
-11 17 16 0
9 -3 16 0
-3 13 2 0
7 14 5 0
13 14 8 0
9 7 16 0
-13 2 18 0
-13 11 -8 0
-3 10 5 0
4 10 -15 0
-8 12 -14 0
3 10 13 0
14 -8 -16 0
-18 -11 -10 0
-9 -3 -12 0
-16 -2 -13 0
17 12 4 0
10 -1 16 0
3 -13 4 0
9 13 -17 0
5 17 16 0
14 9 -3 0
14 11 -3 0
-12 16 -10 0
18 15 10 0
10 -5 14 0
17 8 -13 0
10 -9 -6 0
-5 2 -16 0
8 -13 -3 0
-2 -8 -4 0
-17 -1 4 0
-16 -11 -5 0
