c source SATLIB-style GENERATED (not the literal SATLIB archive)
c generator LogicalOptimizer.Tests SatCorpusGenerator
c kind random-3sat-forced-unsat
c expected UNSAT
c variables 17
c clauses 72
c ratio 4.26
c seed 73000
c note UNSAT verified by exhaustive 2^n brute force at generation time
p cnf 17 72
-14 -7 16 0
1 -7 -6 0
10 2 -16 0
14 5 7 0
2 16 14 0
3 -6 -12 0
-13 -10 6 0
-3 -9 -2 0
-15 16 10 0
-11 14 -6 0
17 8 5 0
9 -5 -4 0
-11 2 -3 0
5 9 -15 0
-4 6 -8 0
-5 6 -10 0
4 2 11 0
-11 -12 8 0
-3 -7 11 0
11 5 9 0
-11 -5 -17 0
14 9 -7 0
-8 11 -12 0
-10 -9 -8 0
11 -13 -12 0
-10 4 -8 0
17 -9 -1 0
2 -10 -13 0
-12 -5 9 0
-7 12 6 0
3 -1 -11 0
-17 11 6 0
10 8 9 0
-16 -7 4 0
6 -1 -12 0
-7 -17 -5 0
-4 11 -1 0
12 -15 1 0
12 7 -4 0
14 8 6 0
2 12 -11 0
-10 8 -15 0
1 6 15 0
9 11 -4 0
-8 4 10 0
-11 15 12 0
-13 5 6 0
-6 -4 2 0
8 -12 1 0
15 -3 5 0
16 17 15 0
7 -9 -17 0
-14 15 -10 0
14 13 12 0
-8 -5 -6 0
-3 -7 14 0
-11 16 13 0
7 -17 -1 0
9 -3 -17 0
-13 14 -9 0
14 10 2 0
15 1 7 0
-14 6 11 0
5 -13 -10 0
14 15 17 0
3 -1 10 0
6 -11 -13 0
2 -13 -8 0
4 -12 -7 0
2 -10 8 0
-2 -17 -4 0
-2 9 10 0
