c source SATLIB-style GENERATED (not the literal SATLIB archive)
c generator LogicalOptimizer.Tests SatCorpusGenerator
c kind random-3sat-forced-unsat
c expected UNSAT
c variables 16
c clauses 68
c ratio 4.26
c seed 71000
c note UNSAT verified by exhaustive 2^n brute force at generation time
p cnf 16 68
-15 9 -1 0
1 14 -10 0
10 -16 -1 0
14 -11 13 0
-9 -4 -14 0
6 -2 -1 0
-13 4 -16 0
15 -11 4 0
4 3 -8 0
-3 4 6 0
-2 -6 5 0
11 -5 -4 0
12 16 -7 0
15 8 9 0
-6 15 -1 0
-9 -15 -1 0
5 2 14 0
-3 -2 10 0
2 16 -13 0
-9 11 -16 0
-2 -3 -11 0
-13 2 10 0
12 2 -1 0
10 4 -14 0
2 14 -6 0
8 11 16 0
9 -7 15 0
9 1 -8 0
-9 -6 -10 0
-4 -12 -15 0
-6 7 -15 0
-3 -12 -14 0
-16 -9 5 0
-6 -13 -10 0
6 -10 -14 0
8 -11 -14 0
-3 14 -10 0
13 10 16 0
-14 12 -8 0
-9 -1 -6 0
15 6 -4 0
-13 -11 -2 0
16 -15 -1 0
-10 -15 6 0
-1 15 3 0
-12 2 -6 0
9 -8 -2 0
13 2 -16 0
8 13 -11 0
-10 11 -9 0
-11 -13 9 0
-5 7 -8 0
-3 -6 9 0
-15 12 -8 0
9 -15 7 0
-11 -6 4 0
-3 -4 9 0
-16 -1 -7 0
-1 12 15 0
3 -5 -13 0
4 -10 8 0
-6 10 -4 0
-2 14 4 0
15 14 2 0
3 1 11 0
-15 -16 -12 0
-9 -6 -11 0
9 -15 -2 0
