c source SATLIB-style GENERATED (not the literal SATLIB archive)
c generator LogicalOptimizer.Tests SatCorpusGenerator
c kind random-3sat-forced-unsat
c expected UNSAT
c variables 18
c clauses 77
c ratio 4.26
c seed 75008
c note UNSAT verified by exhaustive 2^n brute force at generation time
p cnf 18 77
15 11 -9 0
-14 -15 13 0
18 14 -9 0
-4 -15 -2 0
-8 4 5 0
-2 15 -9 0
-5 -11 -14 0
-9 -15 -16 0
18 -15 16 0
-14 -16 -13 0
10 -1 5 0
9 -17 1 0
8 -17 7 0
-14 -12 -6 0
15 -4 9 0
13 -14 1 0
8 -17 -7 0
-14 -16 -11 0
7 11 14 0
4 6 10 0
1 16 -8 0
-8 -11 14 0
14 10 -2 0
-1 9 16 0
4 12 -18 0
17 -16 -1 0
13 12 -1 0
-9 -14 -13 0
16 6 -13 0
3 -7 12 0
-9 8 -18 0
7 -15 4 0
2 5 13 0
-5 2 10 0
-11 4 -1 0
-12 -8 10 0
-4 -12 2 0
-8 9 -1 0
12 15 -8 0
-8 -9 7 0
-11 -17 -12 0
-8 3 6 0
2 -13 3 0
-13 2 -1 0
8 2 -16 0
-16 9 -12 0
-14 -7 4 0
17 -18 2 0
2 -14 6 0
13 -12 -2 0
-1 -13 2 0
15 -12 10 0
8 -5 11 0
-16 -2 10 0
5 -16 13 0
-12 14 11 0
-14 -4 -12 0
11 3 1 0
-18 -15 -1 0
11 -15 -13 0
16 -11 17 0
-18 11 -3 0
-9 10 -3 0
7 3 -12 0
-7 13 -15 0
-13 12 -16 0
9 -7 10 0
1 13 -7 0
-14 11 16 0
-12 3 -17 0
4 6 10 0
12 -16 1 0
-15 1 18 0
18 5 8 0
16 -5 -12 0
-13 6 -16 0
-14 -5 -7 0
