c source SATLIB-style GENERATED (not the literal SATLIB archive)
c generator LogicalOptimizer.Tests SatCorpusGenerator
c kind random-3sat-forced-unsat
c expected UNSAT
c variables 16
c clauses 68
c ratio 4.26
c seed 72009
c note UNSAT verified by exhaustive 2^n brute force at generation time
p cnf 16 68
1 10 4 0
-1 -4 -12 0
5 -9 -3 0
-9 12 -5 0
8 12 1 0
-2 14 -5 0
-7 -1 -15 0
2 -11 -13 0
-10 -6 -4 0
13 -12 2 0
16 14 8 0
-16 15 -13 0
2 -1 3 0
-4 -3 2 0
-7 -3 -13 0
-1 -5 10 0
-12 4 6 0
-5 12 10 0
-16 11 -3 0
-2 -10 5 0
-16 1 4 0
2 -1 -4 0
14 -11 -9 0
-7 -10 -14 0
8 10 -12 0
2 11 4 0
2 -3 15 0
11 13 9 0
-14 3 6 0
-3 -9 2 0
-10 -16 -12 0
-10 5 -15 0
7 -15 -6 0
-9 3 11 0
5 -1 15 0
5 -16 -13 0
-2 -11 -7 0
-8 16 -6 0
16 -11 -3 0
16 -15 -5 0
-11 2 -1 0
11 -9 14 0
-3 -5 14 0
16 6 12 0
14 16 -3 0
-12 11 -2 0
-15 12 -13 0
-16 13 14 0
14 5 -13 0
-9 16 13 0
9 3 4 0
-6 -2 -3 0
3 1 -4 0
13 11 -4 0
-3 -14 15 0
-14 -10 -7 0
-5 10 -13 0
10 7 -2 0
-5 9 -6 0
-6 2 15 0
8 7 -10 0
-5 8 -3 0
-6 -8 -9 0
10 -16 -6 0
4 -11 -7 0
-9 8 -6 0
-7 1 -9 0
6 9 -14 0
